
     Program PWSCF v.7.5 starts on 25Jul2026 at 15:50:39 

     This program is part of the open-source Quantum ESPRESSO suite
     for quantum simulation of materials; please cite
         "P. Giannozzi et al., J. Phys.:Condens. Matter 21 395502 (2009);
         "P. Giannozzi et al., J. Phys.:Condens. Matter 29 465901 (2017);
         "P. Giannozzi et al., J. Chem. Phys. 152 154105 (2020);
          URL http://www.quantum-espresso.org", 
     in publications or presentations arising from this work. More details at
     http://www.quantum-espresso.org/quote

     Parallel version (MPI & OpenMP), running on       6 processor cores
     Number of MPI processes:                 6
     Threads/MPI process:                     1

     MPI processes distributed on     1 nodes
     12457 MiB available memory on the printing compute node when the environment starts

     Reading input from fe.scf.in

     Current dimensions of program PWSCF are:
     Max number of different atomic species (ntypx) = 10
     Max number of k-points (npk) =  40000
     Max angular momentum in pseudopotentials (lmaxx) =  4
     file Fe.pbe-spn-kjpaw_psl.1.0.0.UPF: wavefunction(s)  3P 3D renormalized

     K-points division:     npool     =       6
     Subspace diagonalization in iterative solution of the eigenvalue problem:
     a serial algorithm will be used


     G-vector sticks info
     --------------------
     sticks:   dense  smooth     PW     G-vecs:    dense   smooth      PW
     Sum        1151     467    151                24883     6363    1157

     Using Slab Decomposition



     bravais-lattice index     =            3
     lattice parameter (alat)  =       5.4200  a.u.
     unit-cell volume          =      79.6100 (a.u.)^3
     number of atoms/cell      =            1
     number of atomic types    =            1
     number of electrons       =        16.00
     number of Kohn-Sham states=           12
     kinetic-energy cutoff     =      70.0000  Ry
     charge density cutoff     =     700.0000  Ry
     scf convergence threshold =      1.0E-08
     mixing beta               =       0.3000
     number of iterations used =            8  local-TF  mixing
     Exchange-correlation= SLA  PW   PBX  PBC
                           (   1   4   3   4   0   0   0)

     celldm(1)=   5.420000  celldm(2)=   0.000000  celldm(3)=   0.000000
     celldm(4)=   0.000000  celldm(5)=   0.000000  celldm(6)=   0.000000

     crystal axes: (cart. coord. in units of alat)
               a(1) = (   0.500000   0.500000   0.500000 )  
               a(2) = (  -0.500000   0.500000   0.500000 )  
               a(3) = (  -0.500000  -0.500000   0.500000 )  

     reciprocal axes: (cart. coord. in units 2 pi/alat)
               b(1) = (  1.000000  0.000000  1.000000 )  
               b(2) = ( -1.000000  1.000000  0.000000 )  
               b(3) = (  0.000000 -1.000000  1.000000 )  


     PseudoPot. # 1 for Fe read from file:
     ./pseudo/Fe.pbe-spn-kjpaw_psl.1.0.0.UPF
     MD5 check sum: fc81f059e5c5069939230b1155715ae8
     Pseudo is Projector augmented-wave + core cor, Zval = 16.0
     Generated using &quot;atomic&quot; code by A. Dal Corso  v.6.3
     Shape of augmentation charge: PSQ
     Using radial grid of 1191 points,  6 beta functions with: 
                l(1) =   0
                l(2) =   0
                l(3) =   1
                l(4) =   1
                l(5) =   2
                l(6) =   2
     Q(r) pseudized with 0 coefficients 


     atomic species   valence    mass     pseudopotential
     Fe               16.00    55.84500     Fe( 1.00)

     Starting magnetic structure 
     atomic species   magnetization
     Fe              0.700

     48 Sym. Ops., with inversion, found


                                    s                        frac. trans.

      isym =  1     identity                                     

 cryst.   s( 1) = (     1          0          0      )
                  (     0          1          0      )
                  (     0          0          1      )

 cart.    s( 1) = (  1.0000000  0.0000000  0.0000000 )
                  (  0.0000000  1.0000000  0.0000000 )
                  (  0.0000000  0.0000000  1.0000000 )


      isym =  2     180 deg rotation - cart. axis [0,0,1]        

 cryst.   s( 2) = (     0          0          1      )
                  (     1         -1          1      )
                  (     1          0          0      )

 cart.    s( 2) = ( -1.0000000  0.0000000  0.0000000 )
                  (  0.0000000 -1.0000000  0.0000000 )
                  (  0.0000000  0.0000000  1.0000000 )


      isym =  3     180 deg rotation - cart. axis [0,1,0]        

 cryst.   s( 3) = (    -1          1         -1      )
                  (     0          0         -1      )
                  (     0         -1          0      )

 cart.    s( 3) = ( -1.0000000  0.0000000  0.0000000 )
                  (  0.0000000  1.0000000  0.0000000 )
                  (  0.0000000  0.0000000 -1.0000000 )


      isym =  4     180 deg rotation - cart. axis [1,0,0]        

 cryst.   s( 4) = (     0         -1          0      )
                  (    -1          0          0      )
                  (    -1          1         -1      )

 cart.    s( 4) = (  1.0000000  0.0000000  0.0000000 )
                  (  0.0000000 -1.0000000  0.0000000 )
                  (  0.0000000  0.0000000 -1.0000000 )


      isym =  5     180 deg rotation - cart. axis [1,1,0]        

 cryst.   s( 5) = (     0          0         -1      )
                  (     0         -1          0      )
                  (    -1          0          0      )

 cart.    s( 5) = (  0.0000000  1.0000000  0.0000000 )
                  (  1.0000000  0.0000000  0.0000000 )
                  (  0.0000000  0.0000000 -1.0000000 )


      isym =  6     180 deg rotation - cart. axis [1,-1,0]       

 cryst.   s( 6) = (    -1          0          0      )
                  (    -1          1         -1      )
                  (     0          0         -1      )

 cart.    s( 6) = (  0.0000000 -1.0000000  0.0000000 )
                  ( -1.0000000  0.0000000  0.0000000 )
                  (  0.0000000  0.0000000 -1.0000000 )


      isym =  7      90 deg rotation - cart. axis [0,0,-1]       

 cryst.   s( 7) = (     1         -1          1      )
                  (     1          0          0      )
                  (     0          1          0      )

 cart.    s( 7) = (  0.0000000  1.0000000  0.0000000 )
                  ( -1.0000000  0.0000000  0.0000000 )
                  (  0.0000000  0.0000000  1.0000000 )


      isym =  8      90 deg rotation - cart. axis [0,0,1]        

 cryst.   s( 8) = (     0          1          0      )
                  (     0          0          1      )
                  (     1         -1          1      )

 cart.    s( 8) = (  0.0000000 -1.0000000  0.0000000 )
                  (  1.0000000  0.0000000  0.0000000 )
                  (  0.0000000  0.0000000  1.0000000 )


      isym =  9     180 deg rotation - cart. axis [1,0,1]        

 cryst.   s( 9) = (     1         -1          1      )
                  (     0         -1          0      )
                  (     0          0         -1      )

 cart.    s( 9) = (  0.0000000  0.0000000  1.0000000 )
                  (  0.0000000 -1.0000000  0.0000000 )
                  (  1.0000000  0.0000000  0.0000000 )


      isym = 10     180 deg rotation - cart. axis [-1,0,1]       

 cryst.   s(10) = (    -1          0          0      )
                  (     0          0          1      )
                  (     0          1          0      )

 cart.    s(10) = (  0.0000000  0.0000000 -1.0000000 )
                  (  0.0000000 -1.0000000  0.0000000 )
                  ( -1.0000000  0.0000000  0.0000000 )


      isym = 11      90 deg rotation - cart. axis [0,1,0]        

 cryst.   s(11) = (     0          0         -1      )
                  (     1          0          0      )
                  (     1         -1          1      )

 cart.    s(11) = (  0.0000000  0.0000000  1.0000000 )
                  (  0.0000000  1.0000000  0.0000000 )
                  ( -1.0000000  0.0000000  0.0000000 )


      isym = 12      90 deg rotation - cart. axis [0,-1,0]       

 cryst.   s(12) = (     0          1          0      )
                  (    -1          1         -1      )
                  (    -1          0          0      )

 cart.    s(12) = (  0.0000000  0.0000000 -1.0000000 )
                  (  0.0000000  1.0000000  0.0000000 )
                  (  1.0000000  0.0000000  0.0000000 )


      isym = 13     180 deg rotation - cart. axis [0,1,1]        

 cryst.   s(13) = (     0          1          0      )
                  (     1          0          0      )
                  (     0          0         -1      )

 cart.    s(13) = ( -1.0000000  0.0000000  0.0000000 )
                  (  0.0000000  0.0000000  1.0000000 )
                  (  0.0000000  1.0000000  0.0000000 )


      isym = 14     180 deg rotation - cart. axis [0,1,-1]       

 cryst.   s(14) = (    -1          0          0      )
                  (     0         -1          0      )
                  (     1         -1          1      )

 cart.    s(14) = ( -1.0000000  0.0000000  0.0000000 )
                  (  0.0000000  0.0000000 -1.0000000 )
                  (  0.0000000 -1.0000000  0.0000000 )


      isym = 15      90 deg rotation - cart. axis [-1,0,0]       

 cryst.   s(15) = (     0          0         -1      )
                  (    -1          1         -1      )
                  (     0          1          0      )

 cart.    s(15) = (  1.0000000  0.0000000  0.0000000 )
                  (  0.0000000  0.0000000  1.0000000 )
                  (  0.0000000 -1.0000000  0.0000000 )


      isym = 16      90 deg rotation - cart. axis [1,0,0]        

 cryst.   s(16) = (     1         -1          1      )
                  (     0          0          1      )
                  (    -1          0          0      )

 cart.    s(16) = (  1.0000000  0.0000000  0.0000000 )
                  (  0.0000000  0.0000000 -1.0000000 )
                  (  0.0000000  1.0000000  0.0000000 )


      isym = 17     120 deg rotation - cart. axis [-1,-1,-1]     

 cryst.   s(17) = (     1          0          0      )
                  (     0          0         -1      )
                  (    -1          1         -1      )

 cart.    s(17) = (  0.0000000  1.0000000  0.0000000 )
                  (  0.0000000  0.0000000  1.0000000 )
                  (  1.0000000  0.0000000  0.0000000 )


      isym = 18     120 deg rotation - cart. axis [-1,1,1]       

 cryst.   s(18) = (    -1          1         -1      )
                  (     0          1          0      )
                  (     1          0          0      )

 cart.    s(18) = (  0.0000000 -1.0000000  0.0000000 )
                  (  0.0000000  0.0000000  1.0000000 )
                  ( -1.0000000  0.0000000  0.0000000 )


      isym = 19     120 deg rotation - cart. axis [1,1,-1]       

 cryst.   s(19) = (     0         -1          0      )
                  (     1         -1          1      )
                  (     0          0          1      )

 cart.    s(19) = (  0.0000000  1.0000000  0.0000000 )
                  (  0.0000000  0.0000000 -1.0000000 )
                  ( -1.0000000  0.0000000  0.0000000 )


      isym = 20     120 deg rotation - cart. axis [1,-1,1]       

 cryst.   s(20) = (     0          0          1      )
                  (    -1          0          0      )
                  (     0         -1          0      )

 cart.    s(20) = (  0.0000000 -1.0000000  0.0000000 )
                  (  0.0000000  0.0000000 -1.0000000 )
                  (  1.0000000  0.0000000  0.0000000 )


      isym = 21     120 deg rotation - cart. axis [1,1,1]        

 cryst.   s(21) = (     1          0          0      )
                  (     1         -1          1      )
                  (     0         -1          0      )

 cart.    s(21) = (  0.0000000  0.0000000  1.0000000 )
                  (  1.0000000  0.0000000  0.0000000 )
                  (  0.0000000  1.0000000  0.0000000 )


      isym = 22     120 deg rotation - cart. axis [-1,1,-1]      

 cryst.   s(22) = (     0         -1          0      )
                  (     0          0         -1      )
                  (     1          0          0      )

 cart.    s(22) = (  0.0000000  0.0000000  1.0000000 )
                  ( -1.0000000  0.0000000  0.0000000 )
                  (  0.0000000 -1.0000000  0.0000000 )


      isym = 23     120 deg rotation - cart. axis [1,-1,-1]      

 cryst.   s(23) = (     0          0          1      )
                  (     0          1          0      )
                  (    -1          1         -1      )

 cart.    s(23) = (  0.0000000  0.0000000 -1.0000000 )
                  ( -1.0000000  0.0000000  0.0000000 )
                  (  0.0000000  1.0000000  0.0000000 )


      isym = 24     120 deg rotation - cart. axis [-1,-1,1]      

 cryst.   s(24) = (    -1          1         -1      )
                  (    -1          0          0      )
                  (     0          0          1      )

 cart.    s(24) = (  0.0000000  0.0000000 -1.0000000 )
                  (  1.0000000  0.0000000  0.0000000 )
                  (  0.0000000 -1.0000000  0.0000000 )


      isym = 25     inversion                                    

 cryst.   s(25) = (    -1          0          0      )
                  (     0         -1          0      )
                  (     0          0         -1      )

 cart.    s(25) = ( -1.0000000  0.0000000  0.0000000 )
                  (  0.0000000 -1.0000000  0.0000000 )
                  (  0.0000000  0.0000000 -1.0000000 )


      isym = 26     inv. 180 deg rotation - cart. axis [0,0,1]   

 cryst.   s(26) = (     0          0         -1      )
                  (    -1          1         -1      )
                  (    -1          0          0      )

 cart.    s(26) = (  1.0000000  0.0000000  0.0000000 )
                  (  0.0000000  1.0000000  0.0000000 )
                  (  0.0000000  0.0000000 -1.0000000 )


      isym = 27     inv. 180 deg rotation - cart. axis [0,1,0]   

 cryst.   s(27) = (     1         -1          1      )
                  (     0          0          1      )
                  (     0          1          0      )

 cart.    s(27) = (  1.0000000  0.0000000  0.0000000 )
                  (  0.0000000 -1.0000000  0.0000000 )
                  (  0.0000000  0.0000000  1.0000000 )


      isym = 28     inv. 180 deg rotation - cart. axis [1,0,0]   

 cryst.   s(28) = (     0          1          0      )
                  (     1          0          0      )
                  (     1         -1          1      )

 cart.    s(28) = ( -1.0000000  0.0000000  0.0000000 )
                  (  0.0000000  1.0000000  0.0000000 )
                  (  0.0000000  0.0000000  1.0000000 )


      isym = 29     inv. 180 deg rotation - cart. axis [1,1,0]   

 cryst.   s(29) = (     0          0          1      )
                  (     0          1          0      )
                  (     1          0          0      )

 cart.    s(29) = (  0.0000000 -1.0000000  0.0000000 )
                  ( -1.0000000  0.0000000  0.0000000 )
                  (  0.0000000  0.0000000  1.0000000 )


      isym = 30     inv. 180 deg rotation - cart. axis [1,-1,0]  

 cryst.   s(30) = (     1          0          0      )
                  (     1         -1          1      )
                  (     0          0          1      )

 cart.    s(30) = (  0.0000000  1.0000000  0.0000000 )
                  (  1.0000000  0.0000000  0.0000000 )
                  (  0.0000000  0.0000000  1.0000000 )


      isym = 31     inv.  90 deg rotation - cart. axis [0,0,-1]  

 cryst.   s(31) = (    -1          1         -1      )
                  (    -1          0          0      )
                  (     0         -1          0      )

 cart.    s(31) = (  0.0000000 -1.0000000  0.0000000 )
                  (  1.0000000  0.0000000  0.0000000 )
                  (  0.0000000  0.0000000 -1.0000000 )


      isym = 32     inv.  90 deg rotation - cart. axis [0,0,1]   

 cryst.   s(32) = (     0         -1          0      )
                  (     0          0         -1      )
                  (    -1          1         -1      )

 cart.    s(32) = (  0.0000000  1.0000000  0.0000000 )
                  ( -1.0000000  0.0000000  0.0000000 )
                  (  0.0000000  0.0000000 -1.0000000 )


      isym = 33     inv. 180 deg rotation - cart. axis [1,0,1]   

 cryst.   s(33) = (    -1          1         -1      )
                  (     0          1          0      )
                  (     0          0          1      )

 cart.    s(33) = (  0.0000000  0.0000000 -1.0000000 )
                  (  0.0000000  1.0000000  0.0000000 )
                  ( -1.0000000  0.0000000  0.0000000 )


      isym = 34     inv. 180 deg rotation - cart. axis [-1,0,1]  

 cryst.   s(34) = (     1          0          0      )
                  (     0          0         -1      )
                  (     0         -1          0      )

 cart.    s(34) = (  0.0000000  0.0000000  1.0000000 )
                  (  0.0000000  1.0000000  0.0000000 )
                  (  1.0000000  0.0000000  0.0000000 )


      isym = 35     inv.  90 deg rotation - cart. axis [0,1,0]   

 cryst.   s(35) = (     0          0          1      )
                  (    -1          0          0      )
                  (    -1          1         -1      )

 cart.    s(35) = (  0.0000000  0.0000000 -1.0000000 )
                  (  0.0000000 -1.0000000  0.0000000 )
                  (  1.0000000  0.0000000  0.0000000 )


      isym = 36     inv.  90 deg rotation - cart. axis [0,-1,0]  

 cryst.   s(36) = (     0         -1          0      )
                  (     1         -1          1      )
                  (     1          0          0      )

 cart.    s(36) = (  0.0000000  0.0000000  1.0000000 )
                  (  0.0000000 -1.0000000  0.0000000 )
                  ( -1.0000000  0.0000000  0.0000000 )


      isym = 37     inv. 180 deg rotation - cart. axis [0,1,1]   

 cryst.   s(37) = (     0         -1          0      )
                  (    -1          0          0      )
                  (     0          0          1      )

 cart.    s(37) = (  1.0000000  0.0000000  0.0000000 )
                  (  0.0000000  0.0000000 -1.0000000 )
                  (  0.0000000 -1.0000000  0.0000000 )


      isym = 38     inv. 180 deg rotation - cart. axis [0,1,-1]  

 cryst.   s(38) = (     1          0          0      )
                  (     0          1          0      )
                  (    -1          1         -1      )

 cart.    s(38) = (  1.0000000  0.0000000  0.0000000 )
                  (  0.0000000  0.0000000  1.0000000 )
                  (  0.0000000  1.0000000  0.0000000 )


      isym = 39     inv.  90 deg rotation - cart. axis [-1,0,0]  

 cryst.   s(39) = (     0          0          1      )
                  (     1         -1          1      )
                  (     0         -1          0      )

 cart.    s(39) = ( -1.0000000  0.0000000  0.0000000 )
                  (  0.0000000  0.0000000 -1.0000000 )
                  (  0.0000000  1.0000000  0.0000000 )


      isym = 40     inv.  90 deg rotation - cart. axis [1,0,0]   

 cryst.   s(40) = (    -1          1         -1      )
                  (     0          0         -1      )
                  (     1          0          0      )

 cart.    s(40) = ( -1.0000000  0.0000000  0.0000000 )
                  (  0.0000000  0.0000000  1.0000000 )
                  (  0.0000000 -1.0000000  0.0000000 )


      isym = 41     inv. 120 deg rotation - cart. axis [-1,-1,-1]

 cryst.   s(41) = (    -1          0          0      )
                  (     0          0          1      )
                  (     1         -1          1      )

 cart.    s(41) = (  0.0000000 -1.0000000  0.0000000 )
                  (  0.0000000  0.0000000 -1.0000000 )
                  ( -1.0000000  0.0000000  0.0000000 )


      isym = 42     inv. 120 deg rotation - cart. axis [-1,1,1]  

 cryst.   s(42) = (     1         -1          1      )
                  (     0         -1          0      )
                  (    -1          0          0      )

 cart.    s(42) = (  0.0000000  1.0000000  0.0000000 )
                  (  0.0000000  0.0000000 -1.0000000 )
                  (  1.0000000  0.0000000  0.0000000 )


      isym = 43     inv. 120 deg rotation - cart. axis [1,1,-1]  

 cryst.   s(43) = (     0          1          0      )
                  (    -1          1         -1      )
                  (     0          0         -1      )

 cart.    s(43) = (  0.0000000 -1.0000000  0.0000000 )
                  (  0.0000000  0.0000000  1.0000000 )
                  (  1.0000000  0.0000000  0.0000000 )


      isym = 44     inv. 120 deg rotation - cart. axis [1,-1,1]  

 cryst.   s(44) = (     0          0         -1      )
                  (     1          0          0      )
                  (     0          1          0      )

 cart.    s(44) = (  0.0000000  1.0000000  0.0000000 )
                  (  0.0000000  0.0000000  1.0000000 )
                  ( -1.0000000  0.0000000  0.0000000 )


      isym = 45     inv. 120 deg rotation - cart. axis [1,1,1]   

 cryst.   s(45) = (    -1          0          0      )
                  (    -1          1         -1      )
                  (     0          1          0      )

 cart.    s(45) = (  0.0000000  0.0000000 -1.0000000 )
                  ( -1.0000000  0.0000000  0.0000000 )
                  (  0.0000000 -1.0000000  0.0000000 )


      isym = 46     inv. 120 deg rotation - cart. axis [-1,1,-1] 

 cryst.   s(46) = (     0          1          0      )
                  (     0          0          1      )
                  (    -1          0          0      )

 cart.    s(46) = (  0.0000000  0.0000000 -1.0000000 )
                  (  1.0000000  0.0000000  0.0000000 )
                  (  0.0000000  1.0000000  0.0000000 )


      isym = 47     inv. 120 deg rotation - cart. axis [1,-1,-1] 

 cryst.   s(47) = (     0          0         -1      )
                  (     0         -1          0      )
                  (     1         -1          1      )

 cart.    s(47) = (  0.0000000  0.0000000  1.0000000 )
                  (  1.0000000  0.0000000  0.0000000 )
                  (  0.0000000 -1.0000000  0.0000000 )


      isym = 48     inv. 120 deg rotation - cart. axis [-1,-1,1] 

 cryst.   s(48) = (     1         -1          1      )
                  (     1          0          0      )
                  (     0          0         -1      )

 cart.    s(48) = (  0.0000000  0.0000000  1.0000000 )
                  ( -1.0000000  0.0000000  0.0000000 )
                  (  0.0000000  1.0000000  0.0000000 )


     point group O_h (m-3m) 
     there are 10 classes
     the character table:

       E     8C3   3C2   6C4   6C2'  i     8S6   3s_h  6S4   6s_d 
A_1g   1.00  1.00  1.00  1.00  1.00  1.00  1.00  1.00  1.00  1.00
A_2g   1.00  1.00  1.00 -1.00 -1.00  1.00  1.00  1.00 -1.00 -1.00
E_g    2.00 -1.00  2.00  0.00  0.00  2.00 -1.00  2.00  0.00  0.00
T_1g   3.00  0.00 -1.00  1.00 -1.00  3.00  0.00 -1.00  1.00 -1.00
T_2g   3.00  0.00 -1.00 -1.00  1.00  3.00  0.00 -1.00 -1.00  1.00
A_1u   1.00  1.00  1.00  1.00  1.00 -1.00 -1.00 -1.00 -1.00 -1.00
A_2u   1.00  1.00  1.00 -1.00 -1.00 -1.00 -1.00 -1.00  1.00  1.00
E_u    2.00 -1.00  2.00  0.00  0.00 -2.00  1.00 -2.00  0.00  0.00
T_1u   3.00  0.00 -1.00  1.00 -1.00 -3.00  0.00  1.00 -1.00  1.00
T_2u   3.00  0.00 -1.00 -1.00  1.00 -3.00  0.00  1.00  1.00 -1.00

     the symmetry operations in each class and the name of the first element:

     E        1
          identity                                               
     8C3     17   19   20   18   24   21   22   23
          120 deg rotation - cart. axis [-1,-1,-1]               
     3C2      2    4    3
          180 deg rotation - cart. axis [0,0,1]                  
     6C4      7    8   15   16   12   11
           90 deg rotation - cart. axis [0,0,-1]                 
     6C2'     5    6   14   13   10    9
          180 deg rotation - cart. axis [1,1,0]                  
     i       25
          inversion                                              
     8S6     41   43   44   42   48   45   46   47
          inv. 120 deg rotation - cart. axis [-1,-1,-1]          
     3s_h    26   28   27
          inv. 180 deg rotation - cart. axis [0,0,1]             
     6S4     31   32   39   40   36   35
          inv.  90 deg rotation - cart. axis [0,0,-1]            
     6s_d    29   30   38   37   34   33
          inv. 180 deg rotation - cart. axis [1,1,0]             

   Cartesian axes

     site n.     atom                  positions (alat units)
         1        Fe     tau(   1) = (   0.0000000   0.0000000   0.0000000  )

   Crystallographic axes

     site n.     atom                  positions (cryst. coord.)
         1        Fe     tau(   1) = (  0.0000000  0.0000000  0.0000000  )

     number of k points=   145  Marzari-Vanderbilt smearing, width (Ry)=  0.0200
                       cart. coord. in units 2pi/alat
        k(    1) = (   0.0000000   0.0000000   0.0000000), wk =   0.0002441
        k(    2) = (   0.0000000  -0.0625000   0.0625000), wk =   0.0029297
        k(    3) = (   0.0000000  -0.1250000   0.1250000), wk =   0.0029297
        k(    4) = (   0.0000000  -0.1875000   0.1875000), wk =   0.0029297
        k(    5) = (   0.0000000  -0.2500000   0.2500000), wk =   0.0029297
        k(    6) = (   0.0000000  -0.3125000   0.3125000), wk =   0.0029297
        k(    7) = (   0.0000000  -0.3750000   0.3750000), wk =   0.0029297
        k(    8) = (   0.0000000  -0.4375000   0.4375000), wk =   0.0029297
        k(    9) = (   0.0000000   0.5000000  -0.5000000), wk =   0.0014648
        k(   10) = (  -0.0625000  -0.0625000   0.1250000), wk =   0.0058594
        k(   11) = (  -0.0625000  -0.1250000   0.1875000), wk =   0.0117188
        k(   12) = (  -0.0625000  -0.1875000   0.2500000), wk =   0.0117188
        k(   13) = (  -0.0625000  -0.2500000   0.3125000), wk =   0.0117188
        k(   14) = (  -0.0625000  -0.3125000   0.3750000), wk =   0.0117188
        k(   15) = (  -0.0625000  -0.3750000   0.4375000), wk =   0.0117188
        k(   16) = (  -0.0625000   0.5625000  -0.5000000), wk =   0.0117188
        k(   17) = (  -0.1250000  -0.1250000   0.2500000), wk =   0.0058594
        k(   18) = (  -0.1250000  -0.1875000   0.3125000), wk =   0.0117188
        k(   19) = (  -0.1250000  -0.2500000   0.3750000), wk =   0.0117188
        k(   20) = (  -0.1250000  -0.3125000   0.4375000), wk =   0.0117188
        k(   21) = (  -0.1250000   0.6250000  -0.5000000), wk =   0.0117188
        k(   22) = (  -0.1250000   0.5625000  -0.4375000), wk =   0.0058594
        k(   23) = (  -0.1875000  -0.1875000   0.3750000), wk =   0.0058594
        k(   24) = (  -0.1875000  -0.2500000   0.4375000), wk =   0.0117188
        k(   25) = (  -0.1875000   0.6875000  -0.5000000), wk =   0.0117188
        k(   26) = (  -0.1875000   0.6250000  -0.4375000), wk =   0.0117188
        k(   27) = (  -0.2500000   0.7500000  -0.5000000), wk =   0.0058594
        k(   28) = (  -0.2500000   0.6875000  -0.4375000), wk =   0.0117188
        k(   29) = (  -0.2500000   0.6250000  -0.3750000), wk =   0.0058594
        k(   30) = (  -0.3125000   0.6875000  -0.3750000), wk =   0.0058594
        k(   31) = (   0.0000000   0.0000000   0.1250000), wk =   0.0014648
        k(   32) = (   0.0000000  -0.0625000   0.1875000), wk =   0.0058594
        k(   33) = (   0.0000000  -0.1250000   0.2500000), wk =   0.0058594
        k(   34) = (   0.0000000  -0.1875000   0.3125000), wk =   0.0058594
        k(   35) = (   0.0000000  -0.2500000   0.3750000), wk =   0.0058594
        k(   36) = (   0.0000000  -0.3125000   0.4375000), wk =   0.0058594
        k(   37) = (   0.0000000  -0.3750000   0.5000000), wk =   0.0058594
        k(   38) = (   0.0000000   0.5625000  -0.4375000), wk =   0.0029297
        k(   39) = (  -0.0625000  -0.0625000   0.2500000), wk =   0.0058594
        k(   40) = (  -0.0625000  -0.1250000   0.3125000), wk =   0.0117188
        k(   41) = (  -0.0625000  -0.1875000   0.3750000), wk =   0.0117188
        k(   42) = (  -0.0625000  -0.2500000   0.4375000), wk =   0.0117188
        k(   43) = (  -0.0625000  -0.3125000   0.5000000), wk =   0.0117188
        k(   44) = (  -0.0625000   0.6250000  -0.4375000), wk =   0.0117188
        k(   45) = (  -0.1250000   0.1250000   0.1250000), wk =   0.0019531
        k(   46) = (  -0.1250000  -0.1250000   0.3750000), wk =   0.0058594
        k(   47) = (  -0.1250000  -0.1875000   0.4375000), wk =   0.0117188
        k(   48) = (  -0.1250000  -0.2500000   0.5000000), wk =   0.0117188
        k(   49) = (  -0.1250000   0.6875000  -0.4375000), wk =   0.0117188
        k(   50) = (  -0.1250000   0.6250000  -0.3750000), wk =   0.0058594
        k(   51) = (  -0.1875000   0.1875000   0.1250000), wk =   0.0058594
        k(   52) = (  -0.1875000  -0.1875000   0.5000000), wk =   0.0058594
        k(   53) = (  -0.1875000   0.7500000  -0.4375000), wk =   0.0117188
        k(   54) = (  -0.1875000   0.6875000  -0.3750000), wk =   0.0117188
        k(   55) = (  -0.2500000   0.2500000   0.1250000), wk =   0.0058594
        k(   56) = (  -0.2500000   0.1875000   0.1875000), wk =   0.0058594
        k(   57) = (  -0.2500000   0.7500000  -0.3750000), wk =   0.0058594
        k(   58) = (  -0.2500000   0.6875000  -0.3125000), wk =   0.0058594
        k(   59) = (  -0.3125000   0.3125000   0.1250000), wk =   0.0058594
        k(   60) = (  -0.3125000   0.2500000   0.1875000), wk =   0.0117188
        k(   61) = (  -0.3750000   0.3750000   0.1250000), wk =   0.0058594
        k(   62) = (  -0.3750000   0.3125000   0.1875000), wk =   0.0117188
        k(   63) = (  -0.3750000   0.2500000   0.2500000), wk =   0.0058594
        k(   64) = (   0.5625000  -0.5625000   0.1250000), wk =   0.0058594
        k(   65) = (   0.5625000  -0.6250000   0.1875000), wk =   0.0117188
        k(   66) = (   0.5625000  -0.6875000   0.2500000), wk =   0.0117188
        k(   67) = (   0.5000000  -0.5000000   0.1250000), wk =   0.0029297
        k(   68) = (   0.5000000  -0.5625000   0.1875000), wk =   0.0117188
        k(   69) = (   0.5000000  -0.6250000   0.2500000), wk =   0.0117188
        k(   70) = (   0.5000000  -0.6875000   0.3125000), wk =   0.0058594
        k(   71) = (   0.4375000  -0.5625000   0.2500000), wk =   0.0058594
        k(   72) = (   0.4375000  -0.6250000   0.3125000), wk =   0.0117188
        k(   73) = (   0.3750000  -0.6250000   0.3750000), wk =   0.0019531
        k(   74) = (   0.0000000   0.0000000   0.2500000), wk =   0.0014648
        k(   75) = (   0.0000000  -0.0625000   0.3125000), wk =   0.0058594
        k(   76) = (   0.0000000  -0.1250000   0.3750000), wk =   0.0058594
        k(   77) = (   0.0000000  -0.1875000   0.4375000), wk =   0.0058594
        k(   78) = (   0.0000000  -0.2500000   0.5000000), wk =   0.0058594
        k(   79) = (   0.0000000  -0.3125000   0.5625000), wk =   0.0058594
        k(   80) = (   0.0000000   0.6250000  -0.3750000), wk =   0.0029297
        k(   81) = (  -0.0625000  -0.0625000   0.3750000), wk =   0.0058594
        k(   82) = (  -0.0625000  -0.1250000   0.4375000), wk =   0.0117188
        k(   83) = (  -0.0625000  -0.1875000   0.5000000), wk =   0.0117188
        k(   84) = (  -0.0625000  -0.2500000   0.5625000), wk =   0.0117188
        k(   85) = (  -0.0625000   0.6875000  -0.3750000), wk =   0.0117188
        k(   86) = (  -0.1250000  -0.1250000   0.5000000), wk =   0.0058594
        k(   87) = (  -0.1250000  -0.1875000   0.5625000), wk =   0.0117188
        k(   88) = (  -0.1250000   0.7500000  -0.3750000), wk =   0.0117188
        k(   89) = (  -0.1250000   0.6875000  -0.3125000), wk =   0.0058594
        k(   90) = (  -0.1875000   0.8125000  -0.3750000), wk =   0.0058594
        k(   91) = (  -0.1875000   0.7500000  -0.3125000), wk =   0.0117188
        k(   92) = (  -0.2500000   0.2500000   0.2500000), wk =   0.0019531
        k(   93) = (  -0.2500000   0.7500000  -0.2500000), wk =   0.0019531
        k(   94) = (  -0.3125000   0.3125000   0.2500000), wk =   0.0058594
        k(   95) = (   0.6250000  -0.6250000   0.2500000), wk =   0.0058594
        k(   96) = (   0.6250000  -0.6875000   0.3125000), wk =   0.0058594
        k(   97) = (   0.5625000  -0.5625000   0.2500000), wk =   0.0058594
        k(   98) = (   0.5625000  -0.6250000   0.3125000), wk =   0.0117188
        k(   99) = (   0.5000000  -0.5000000   0.2500000), wk =   0.0029297
        k(  100) = (   0.5000000  -0.5625000   0.3125000), wk =   0.0117188
        k(  101) = (   0.5000000  -0.6250000   0.3750000), wk =   0.0058594
        k(  102) = (   0.4375000  -0.5625000   0.3750000), wk =   0.0058594
        k(  103) = (   0.0000000   0.0000000   0.3750000), wk =   0.0014648
        k(  104) = (   0.0000000  -0.0625000   0.4375000), wk =   0.0058594
        k(  105) = (   0.0000000  -0.1250000   0.5000000), wk =   0.0058594
        k(  106) = (   0.0000000  -0.1875000   0.5625000), wk =   0.0058594
        k(  107) = (   0.0000000  -0.2500000   0.6250000), wk =   0.0058594
        k(  108) = (   0.0000000   0.6875000  -0.3125000), wk =   0.0029297
        k(  109) = (  -0.0625000  -0.0625000   0.5000000), wk =   0.0058594
        k(  110) = (  -0.0625000  -0.1250000   0.5625000), wk =   0.0117188
        k(  111) = (  -0.0625000  -0.1875000   0.6250000), wk =   0.0117188
        k(  112) = (  -0.0625000   0.7500000  -0.3125000), wk =   0.0117188
        k(  113) = (  -0.1250000  -0.1250000   0.6250000), wk =   0.0058594
        k(  114) = (  -0.1250000   0.8125000  -0.3125000), wk =   0.0117188
        k(  115) = (  -0.1250000   0.7500000  -0.2500000), wk =   0.0058594
        k(  116) = (  -0.1875000   0.8125000  -0.2500000), wk =   0.0058594
        k(  117) = (   0.6250000  -0.6250000   0.3750000), wk =   0.0019531
        k(  118) = (   0.5625000  -0.5625000   0.3750000), wk =   0.0058594
        k(  119) = (   0.5000000  -0.5000000   0.3750000), wk =   0.0029297
        k(  120) = (   0.5000000  -0.5625000   0.4375000), wk =   0.0058594
        k(  121) = (   0.0000000   0.0000000   0.5000000), wk =   0.0014648
        k(  122) = (   0.0000000  -0.0625000   0.5625000), wk =   0.0058594
        k(  123) = (   0.0000000  -0.1250000   0.6250000), wk =   0.0058594
        k(  124) = (   0.0000000  -0.1875000   0.6875000), wk =   0.0058594
        k(  125) = (   0.0000000   0.7500000  -0.2500000), wk =   0.0029297
        k(  126) = (  -0.0625000  -0.0625000   0.6250000), wk =   0.0058594
        k(  127) = (  -0.0625000  -0.1250000   0.6875000), wk =   0.0117188
        k(  128) = (  -0.0625000   0.8125000  -0.2500000), wk =   0.0117188
        k(  129) = (  -0.1250000   0.8750000  -0.2500000), wk =   0.0058594
        k(  130) = (  -0.1250000   0.8125000  -0.1875000), wk =   0.0058594
        k(  131) = (   0.5000000  -0.5000000   0.5000000), wk =   0.0004883
        k(  132) = (   0.0000000   0.0000000   0.6250000), wk =   0.0014648
        k(  133) = (   0.0000000  -0.0625000   0.6875000), wk =   0.0058594
        k(  134) = (   0.0000000  -0.1250000   0.7500000), wk =   0.0058594
        k(  135) = (   0.0000000   0.8125000  -0.1875000), wk =   0.0029297
        k(  136) = (  -0.0625000  -0.0625000   0.7500000), wk =   0.0058594
        k(  137) = (  -0.0625000   0.8750000  -0.1875000), wk =   0.0117188
        k(  138) = (  -0.1250000   0.8750000  -0.1250000), wk =   0.0019531
        k(  139) = (   0.0000000   0.0000000   0.7500000), wk =   0.0014648
        k(  140) = (   0.0000000  -0.0625000   0.8125000), wk =   0.0058594
        k(  141) = (   0.0000000   0.8750000  -0.1250000), wk =   0.0029297
        k(  142) = (  -0.0625000   0.9375000  -0.1250000), wk =   0.0058594
        k(  143) = (   0.0000000   0.0000000   0.8750000), wk =   0.0014648
        k(  144) = (   0.0000000   0.9375000  -0.0625000), wk =   0.0029297
        k(  145) = (   0.0000000   0.0000000  -1.0000000), wk =   0.0002441

                       cryst. coord.
        k(    1) = (   0.0000000   0.0000000   0.0000000), wk =   0.0002441
        k(    2) = (   0.0000000   0.0000000   0.0625000), wk =   0.0029297
        k(    3) = (   0.0000000   0.0000000   0.1250000), wk =   0.0029297
        k(    4) = (   0.0000000   0.0000000   0.1875000), wk =   0.0029297
        k(    5) = (   0.0000000   0.0000000   0.2500000), wk =   0.0029297
        k(    6) = (   0.0000000   0.0000000   0.3125000), wk =   0.0029297
        k(    7) = (   0.0000000   0.0000000   0.3750000), wk =   0.0029297
        k(    8) = (   0.0000000   0.0000000   0.4375000), wk =   0.0029297
        k(    9) = (   0.0000000   0.0000000  -0.5000000), wk =   0.0014648
        k(   10) = (   0.0000000   0.0625000   0.1250000), wk =   0.0058594
        k(   11) = (   0.0000000   0.0625000   0.1875000), wk =   0.0117188
        k(   12) = (   0.0000000   0.0625000   0.2500000), wk =   0.0117188
        k(   13) = (   0.0000000   0.0625000   0.3125000), wk =   0.0117188
        k(   14) = (   0.0000000   0.0625000   0.3750000), wk =   0.0117188
        k(   15) = (   0.0000000   0.0625000   0.4375000), wk =   0.0117188
        k(   16) = (   0.0000000   0.0625000  -0.5000000), wk =   0.0117188
        k(   17) = (   0.0000000   0.1250000   0.2500000), wk =   0.0058594
        k(   18) = (   0.0000000   0.1250000   0.3125000), wk =   0.0117188
        k(   19) = (   0.0000000   0.1250000   0.3750000), wk =   0.0117188
        k(   20) = (   0.0000000   0.1250000   0.4375000), wk =   0.0117188
        k(   21) = (   0.0000000   0.1250000  -0.5000000), wk =   0.0117188
        k(   22) = (   0.0000000   0.1250000  -0.4375000), wk =   0.0058594
        k(   23) = (   0.0000000   0.1875000   0.3750000), wk =   0.0058594
        k(   24) = (   0.0000000   0.1875000   0.4375000), wk =   0.0117188
        k(   25) = (   0.0000000   0.1875000  -0.5000000), wk =   0.0117188
        k(   26) = (   0.0000000   0.1875000  -0.4375000), wk =   0.0117188
        k(   27) = (   0.0000000   0.2500000  -0.5000000), wk =   0.0058594
        k(   28) = (   0.0000000   0.2500000  -0.4375000), wk =   0.0117188
        k(   29) = (   0.0000000   0.2500000  -0.3750000), wk =   0.0058594
        k(   30) = (   0.0000000   0.3125000  -0.3750000), wk =   0.0058594
        k(   31) = (   0.0625000   0.0625000   0.0625000), wk =   0.0014648
        k(   32) = (   0.0625000   0.0625000   0.1250000), wk =   0.0058594
        k(   33) = (   0.0625000   0.0625000   0.1875000), wk =   0.0058594
        k(   34) = (   0.0625000   0.0625000   0.2500000), wk =   0.0058594
        k(   35) = (   0.0625000   0.0625000   0.3125000), wk =   0.0058594
        k(   36) = (   0.0625000   0.0625000   0.3750000), wk =   0.0058594
        k(   37) = (   0.0625000   0.0625000   0.4375000), wk =   0.0058594
        k(   38) = (   0.0625000   0.0625000  -0.5000000), wk =   0.0029297
        k(   39) = (   0.0625000   0.1250000   0.1875000), wk =   0.0058594
        k(   40) = (   0.0625000   0.1250000   0.2500000), wk =   0.0117188
        k(   41) = (   0.0625000   0.1250000   0.3125000), wk =   0.0117188
        k(   42) = (   0.0625000   0.1250000   0.3750000), wk =   0.0117188
        k(   43) = (   0.0625000   0.1250000   0.4375000), wk =   0.0117188
        k(   44) = (   0.0625000   0.1250000  -0.5000000), wk =   0.0117188
        k(   45) = (   0.0625000   0.1875000   0.0625000), wk =   0.0019531
        k(   46) = (   0.0625000   0.1875000   0.3125000), wk =   0.0058594
        k(   47) = (   0.0625000   0.1875000   0.3750000), wk =   0.0117188
        k(   48) = (   0.0625000   0.1875000   0.4375000), wk =   0.0117188
        k(   49) = (   0.0625000   0.1875000  -0.5000000), wk =   0.0117188
        k(   50) = (   0.0625000   0.1875000  -0.4375000), wk =   0.0058594
        k(   51) = (   0.0625000   0.2500000   0.0625000), wk =   0.0058594
        k(   52) = (   0.0625000   0.2500000   0.4375000), wk =   0.0058594
        k(   53) = (   0.0625000   0.2500000  -0.5000000), wk =   0.0117188
        k(   54) = (   0.0625000   0.2500000  -0.4375000), wk =   0.0117188
        k(   55) = (   0.0625000   0.3125000   0.0625000), wk =   0.0058594
        k(   56) = (   0.0625000   0.3125000   0.1250000), wk =   0.0058594
        k(   57) = (   0.0625000   0.3125000  -0.4375000), wk =   0.0058594
        k(   58) = (   0.0625000   0.3125000  -0.3750000), wk =   0.0058594
        k(   59) = (   0.0625000   0.3750000   0.0625000), wk =   0.0058594
        k(   60) = (   0.0625000   0.3750000   0.1250000), wk =   0.0117188
        k(   61) = (   0.0625000   0.4375000   0.0625000), wk =   0.0058594
        k(   62) = (   0.0625000   0.4375000   0.1250000), wk =   0.0117188
        k(   63) = (   0.0625000   0.4375000   0.1875000), wk =   0.0058594
        k(   64) = (   0.0625000  -0.5000000   0.0625000), wk =   0.0058594
        k(   65) = (   0.0625000  -0.5000000   0.1250000), wk =   0.0117188
        k(   66) = (   0.0625000  -0.5000000   0.1875000), wk =   0.0117188
        k(   67) = (   0.0625000  -0.4375000   0.0625000), wk =   0.0029297
        k(   68) = (   0.0625000  -0.4375000   0.1250000), wk =   0.0117188
        k(   69) = (   0.0625000  -0.4375000   0.1875000), wk =   0.0117188
        k(   70) = (   0.0625000  -0.4375000   0.2500000), wk =   0.0058594
        k(   71) = (   0.0625000  -0.3750000   0.1875000), wk =   0.0058594
        k(   72) = (   0.0625000  -0.3750000   0.2500000), wk =   0.0117188
        k(   73) = (   0.0625000  -0.3125000   0.3125000), wk =   0.0019531
        k(   74) = (   0.1250000   0.1250000   0.1250000), wk =   0.0014648
        k(   75) = (   0.1250000   0.1250000   0.1875000), wk =   0.0058594
        k(   76) = (   0.1250000   0.1250000   0.2500000), wk =   0.0058594
        k(   77) = (   0.1250000   0.1250000   0.3125000), wk =   0.0058594
        k(   78) = (   0.1250000   0.1250000   0.3750000), wk =   0.0058594
        k(   79) = (   0.1250000   0.1250000   0.4375000), wk =   0.0058594
        k(   80) = (   0.1250000   0.1250000  -0.5000000), wk =   0.0029297
        k(   81) = (   0.1250000   0.1875000   0.2500000), wk =   0.0058594
        k(   82) = (   0.1250000   0.1875000   0.3125000), wk =   0.0117188
        k(   83) = (   0.1250000   0.1875000   0.3750000), wk =   0.0117188
        k(   84) = (   0.1250000   0.1875000   0.4375000), wk =   0.0117188
        k(   85) = (   0.1250000   0.1875000  -0.5000000), wk =   0.0117188
        k(   86) = (   0.1250000   0.2500000   0.3750000), wk =   0.0058594
        k(   87) = (   0.1250000   0.2500000   0.4375000), wk =   0.0117188
        k(   88) = (   0.1250000   0.2500000  -0.5000000), wk =   0.0117188
        k(   89) = (   0.1250000   0.2500000  -0.4375000), wk =   0.0058594
        k(   90) = (   0.1250000   0.3125000  -0.5000000), wk =   0.0058594
        k(   91) = (   0.1250000   0.3125000  -0.4375000), wk =   0.0117188
        k(   92) = (   0.1250000   0.3750000   0.1250000), wk =   0.0019531
        k(   93) = (   0.1250000   0.3750000  -0.3750000), wk =   0.0019531
        k(   94) = (   0.1250000   0.4375000   0.1250000), wk =   0.0058594
        k(   95) = (   0.1250000  -0.5000000   0.1250000), wk =   0.0058594
        k(   96) = (   0.1250000  -0.5000000   0.1875000), wk =   0.0058594
        k(   97) = (   0.1250000  -0.4375000   0.1250000), wk =   0.0058594
        k(   98) = (   0.1250000  -0.4375000   0.1875000), wk =   0.0117188
        k(   99) = (   0.1250000  -0.3750000   0.1250000), wk =   0.0029297
        k(  100) = (   0.1250000  -0.3750000   0.1875000), wk =   0.0117188
        k(  101) = (   0.1250000  -0.3750000   0.2500000), wk =   0.0058594
        k(  102) = (   0.1250000  -0.3125000   0.2500000), wk =   0.0058594
        k(  103) = (   0.1875000   0.1875000   0.1875000), wk =   0.0014648
        k(  104) = (   0.1875000   0.1875000   0.2500000), wk =   0.0058594
        k(  105) = (   0.1875000   0.1875000   0.3125000), wk =   0.0058594
        k(  106) = (   0.1875000   0.1875000   0.3750000), wk =   0.0058594
        k(  107) = (   0.1875000   0.1875000   0.4375000), wk =   0.0058594
        k(  108) = (   0.1875000   0.1875000  -0.5000000), wk =   0.0029297
        k(  109) = (   0.1875000   0.2500000   0.3125000), wk =   0.0058594
        k(  110) = (   0.1875000   0.2500000   0.3750000), wk =   0.0117188
        k(  111) = (   0.1875000   0.2500000   0.4375000), wk =   0.0117188
        k(  112) = (   0.1875000   0.2500000  -0.5000000), wk =   0.0117188
        k(  113) = (   0.1875000   0.3125000   0.4375000), wk =   0.0058594
        k(  114) = (   0.1875000   0.3125000  -0.5000000), wk =   0.0117188
        k(  115) = (   0.1875000   0.3125000  -0.4375000), wk =   0.0058594
        k(  116) = (   0.1875000   0.3750000  -0.4375000), wk =   0.0058594
        k(  117) = (   0.1875000  -0.4375000   0.1875000), wk =   0.0019531
        k(  118) = (   0.1875000  -0.3750000   0.1875000), wk =   0.0058594
        k(  119) = (   0.1875000  -0.3125000   0.1875000), wk =   0.0029297
        k(  120) = (   0.1875000  -0.3125000   0.2500000), wk =   0.0058594
        k(  121) = (   0.2500000   0.2500000   0.2500000), wk =   0.0014648
        k(  122) = (   0.2500000   0.2500000   0.3125000), wk =   0.0058594
        k(  123) = (   0.2500000   0.2500000   0.3750000), wk =   0.0058594
        k(  124) = (   0.2500000   0.2500000   0.4375000), wk =   0.0058594
        k(  125) = (   0.2500000   0.2500000  -0.5000000), wk =   0.0029297
        k(  126) = (   0.2500000   0.3125000   0.3750000), wk =   0.0058594
        k(  127) = (   0.2500000   0.3125000   0.4375000), wk =   0.0117188
        k(  128) = (   0.2500000   0.3125000  -0.5000000), wk =   0.0117188
        k(  129) = (   0.2500000   0.3750000  -0.5000000), wk =   0.0058594
        k(  130) = (   0.2500000   0.3750000  -0.4375000), wk =   0.0058594
        k(  131) = (   0.2500000  -0.2500000   0.2500000), wk =   0.0004883
        k(  132) = (   0.3125000   0.3125000   0.3125000), wk =   0.0014648
        k(  133) = (   0.3125000   0.3125000   0.3750000), wk =   0.0058594
        k(  134) = (   0.3125000   0.3125000   0.4375000), wk =   0.0058594
        k(  135) = (   0.3125000   0.3125000  -0.5000000), wk =   0.0029297
        k(  136) = (   0.3125000   0.3750000   0.4375000), wk =   0.0058594
        k(  137) = (   0.3125000   0.3750000  -0.5000000), wk =   0.0117188
        k(  138) = (   0.3125000   0.4375000  -0.4375000), wk =   0.0019531
        k(  139) = (   0.3750000   0.3750000   0.3750000), wk =   0.0014648
        k(  140) = (   0.3750000   0.3750000   0.4375000), wk =   0.0058594
        k(  141) = (   0.3750000   0.3750000  -0.5000000), wk =   0.0029297
        k(  142) = (   0.3750000   0.4375000  -0.5000000), wk =   0.0058594
        k(  143) = (   0.4375000   0.4375000   0.4375000), wk =   0.0014648
        k(  144) = (   0.4375000   0.4375000  -0.5000000), wk =   0.0029297
        k(  145) = (  -0.5000000  -0.5000000  -0.5000000), wk =   0.0002441

     Dense  grid:    24883 G-vectors     FFT dimensions: (  40,  40,  40)

     Smooth grid:     6363 G-vectors     FFT dimensions: (  25,  25,  25)

     Dynamical RAM for                 wfc:       0.14 MB

     Dynamical RAM for     wfc (w. buffer):       7.21 MB

     Dynamical RAM for           str. fact:       0.38 MB

     Dynamical RAM for           local pot:       0.00 MB

     Dynamical RAM for          nlocal pot:       0.22 MB

     Dynamical RAM for                qrad:       2.12 MB

     Dynamical RAM for          rho,v,vnew:       5.21 MB

     Dynamical RAM for               rhoin:       1.74 MB

     Dynamical RAM for            rho*nmix:      12.15 MB

     Dynamical RAM for           G-vectors:       1.47 MB

     Dynamical RAM for          h,s,v(r/c):       0.03 MB

     Dynamical RAM for          <psi|beta>:       0.00 MB

     Dynamical RAM for                 psi:       0.29 MB

     Dynamical RAM for                hpsi:       0.29 MB

     Dynamical RAM for                spsi:       0.29 MB

     Dynamical RAM for      wfcinit/wfcrot:       0.29 MB

     Dynamical RAM for           addusdens:      12.53 MB

     Estimated static dynamical RAM per process >      22.03 MB

     Estimated max dynamical RAM per process >      46.71 MB

     Estimated total dynamical RAM >     219.49 MB
     Generating pointlists ...
     new r_m :   0.3572 (alat units)  1.9362 (a.u.) for type    1

     Initial potential from superposition of free atoms

     starting charge      15.9996, renormalised to      16.0000
     Starting wfcs are   10 randomized atomic wfcs +    2 random wfcs
     Checking if some PAW data can be deallocated... 

     total cpu time spent up to now is        2.3 secs

     per-process dynamical memory:    33.0 Mb

     Self-consistent Calculation

     iteration #  1     ecut=    70.00 Ry     beta= 0.30
     Davidson diagonalization with overlap

---- Real-time Memory Report at c_bands before calling an iterative solver
            72 MiB given to the printing process from OS
            33 MiB allocation reported by mallinfo(arena+hblkhd)
         12275 MiB available memory on the node where the printing process lives
------------------
     ethr =  1.00E-02,  avg # of iterations =  4.6

     negative rho (up, down):  0.000E+00 1.842E-05

     total cpu time spent up to now is        3.8 secs

     total energy              =    -328.61960543 Ry
     estimated scf accuracy    <       1.50003216 Ry

     total magnetization       =     3.87 Bohr mag/cell
     absolute magnetization    =     3.90 Bohr mag/cell

     iteration #  2     ecut=    70.00 Ry     beta= 0.30
     Davidson diagonalization with overlap

---- Real-time Memory Report at c_bands before calling an iterative solver
            85 MiB given to the printing process from OS
            48 MiB allocation reported by mallinfo(arena+hblkhd)
         12187 MiB available memory on the node where the printing process lives
------------------
     ethr =  9.38E-03,  avg # of iterations =  1.0

     negative rho (up, down):  0.000E+00 3.025E-04

     total cpu time spent up to now is        4.8 secs

     total energy              =    -329.15166787 Ry
     estimated scf accuracy    <       0.80415010 Ry

     total magnetization       =     3.59 Bohr mag/cell
     absolute magnetization    =     3.67 Bohr mag/cell

     iteration #  3     ecut=    70.00 Ry     beta= 0.30
     Davidson diagonalization with overlap

---- Real-time Memory Report at c_bands before calling an iterative solver
            86 MiB given to the printing process from OS
            49 MiB allocation reported by mallinfo(arena+hblkhd)
         12186 MiB available memory on the node where the printing process lives
------------------
     ethr =  5.03E-03,  avg # of iterations =  1.2

     negative rho (up, down):  0.000E+00 2.305E-04

     total cpu time spent up to now is        5.9 secs

     total energy              =    -329.25770463 Ry
     estimated scf accuracy    <       0.03842217 Ry

     total magnetization       =     2.60 Bohr mag/cell
     absolute magnetization    =     2.80 Bohr mag/cell

     iteration #  4     ecut=    70.00 Ry     beta= 0.30
     Davidson diagonalization with overlap

---- Real-time Memory Report at c_bands before calling an iterative solver
            86 MiB given to the printing process from OS
            49 MiB allocation reported by mallinfo(arena+hblkhd)
         12186 MiB available memory on the node where the printing process lives
------------------
     ethr =  2.40E-04,  avg # of iterations =  1.7

     negative rho (up, down):  0.000E+00 2.179E-04

     total cpu time spent up to now is        7.0 secs

     total energy              =    -329.25786638 Ry
     estimated scf accuracy    <       0.02370679 Ry

     total magnetization       =     2.60 Bohr mag/cell
     absolute magnetization    =     2.78 Bohr mag/cell

     iteration #  5     ecut=    70.00 Ry     beta= 0.30
     Davidson diagonalization with overlap

---- Real-time Memory Report at c_bands before calling an iterative solver
            86 MiB given to the printing process from OS
            49 MiB allocation reported by mallinfo(arena+hblkhd)
         12186 MiB available memory on the node where the printing process lives
------------------
     ethr =  1.48E-04,  avg # of iterations =  1.1

     negative rho (up, down):  0.000E+00 1.495E-04

     total cpu time spent up to now is        8.0 secs

     total energy              =    -329.25681322 Ry
     estimated scf accuracy    <       0.02411130 Ry

     total magnetization       =     2.60 Bohr mag/cell
     absolute magnetization    =     2.78 Bohr mag/cell

     iteration #  6     ecut=    70.00 Ry     beta= 0.30
     Davidson diagonalization with overlap

---- Real-time Memory Report at c_bands before calling an iterative solver
            87 MiB given to the printing process from OS
            50 MiB allocation reported by mallinfo(arena+hblkhd)
         12179 MiB available memory on the node where the printing process lives
------------------
     ethr =  1.48E-04,  avg # of iterations =  1.5

     negative rho (up, down):  0.000E+00 1.483E-04

     total cpu time spent up to now is        9.1 secs

     total energy              =    -329.26057837 Ry
     estimated scf accuracy    <       0.00172515 Ry

     total magnetization       =     2.43 Bohr mag/cell
     absolute magnetization    =     2.57 Bohr mag/cell

     iteration #  7     ecut=    70.00 Ry     beta= 0.30
     Davidson diagonalization with overlap

---- Real-time Memory Report at c_bands before calling an iterative solver
            87 MiB given to the printing process from OS
            50 MiB allocation reported by mallinfo(arena+hblkhd)
         12249 MiB available memory on the node where the printing process lives
------------------
     ethr =  1.08E-05,  avg # of iterations =  1.8

     negative rho (up, down):  0.000E+00 1.471E-04

     total cpu time spent up to now is       10.1 secs

     total energy              =    -329.26071996 Ry
     estimated scf accuracy    <       0.00166106 Ry

     total magnetization       =     2.42 Bohr mag/cell
     absolute magnetization    =     2.56 Bohr mag/cell

     iteration #  8     ecut=    70.00 Ry     beta= 0.30
     Davidson diagonalization with overlap

---- Real-time Memory Report at c_bands before calling an iterative solver
            87 MiB given to the printing process from OS
            51 MiB allocation reported by mallinfo(arena+hblkhd)
         12184 MiB available memory on the node where the printing process lives
------------------
     ethr =  1.04E-05,  avg # of iterations =  1.0

     negative rho (up, down):  0.000E+00 1.326E-04

     total cpu time spent up to now is       11.1 secs

     total energy              =    -329.26116315 Ry
     estimated scf accuracy    <       0.00173684 Ry

     total magnetization       =     2.41 Bohr mag/cell
     absolute magnetization    =     2.55 Bohr mag/cell

     iteration #  9     ecut=    70.00 Ry     beta= 0.30
     Davidson diagonalization with overlap

---- Real-time Memory Report at c_bands before calling an iterative solver
            88 MiB given to the printing process from OS
            51 MiB allocation reported by mallinfo(arena+hblkhd)
         12184 MiB available memory on the node where the printing process lives
------------------
     ethr =  1.04E-05,  avg # of iterations =  1.0

     negative rho (up, down):  0.000E+00 1.018E-04

     total cpu time spent up to now is       12.0 secs

     total energy              =    -329.26183409 Ry
     estimated scf accuracy    <       0.00180747 Ry

     total magnetization       =     2.37 Bohr mag/cell
     absolute magnetization    =     2.51 Bohr mag/cell

     iteration # 10     ecut=    70.00 Ry     beta= 0.30
     Davidson diagonalization with overlap

---- Real-time Memory Report at c_bands before calling an iterative solver
            88 MiB given to the printing process from OS
            51 MiB allocation reported by mallinfo(arena+hblkhd)
         12184 MiB available memory on the node where the printing process lives
------------------
     ethr =  1.04E-05,  avg # of iterations =  1.0

     negative rho (up, down):  0.000E+00 9.937E-05

     total cpu time spent up to now is       12.9 secs

     total energy              =    -329.26230005 Ry
     estimated scf accuracy    <       0.00097356 Ry

     total magnetization       =     2.29 Bohr mag/cell
     absolute magnetization    =     2.43 Bohr mag/cell

     iteration # 11     ecut=    70.00 Ry     beta= 0.30
     Davidson diagonalization with overlap

---- Real-time Memory Report at c_bands before calling an iterative solver
            88 MiB given to the printing process from OS
            51 MiB allocation reported by mallinfo(arena+hblkhd)
         12183 MiB available memory on the node where the printing process lives
------------------
     ethr =  6.08E-06,  avg # of iterations =  1.1

     negative rho (up, down):  0.000E+00 1.237E-04

     total cpu time spent up to now is       13.8 secs

     total energy              =    -329.26257243 Ry
     estimated scf accuracy    <       0.00065692 Ry

     total magnetization       =     2.27 Bohr mag/cell
     absolute magnetization    =     2.41 Bohr mag/cell

     iteration # 12     ecut=    70.00 Ry     beta= 0.30
     Davidson diagonalization with overlap

---- Real-time Memory Report at c_bands before calling an iterative solver
            88 MiB given to the printing process from OS
            51 MiB allocation reported by mallinfo(arena+hblkhd)
         12177 MiB available memory on the node where the printing process lives
------------------
     ethr =  4.11E-06,  avg # of iterations =  1.6

     negative rho (up, down):  0.000E+00 5.742E-05

     total cpu time spent up to now is       14.7 secs

     total energy              =    -329.26170294 Ry
     estimated scf accuracy    <       0.00095595 Ry

     total magnetization       =     2.25 Bohr mag/cell
     absolute magnetization    =     2.38 Bohr mag/cell

     iteration # 13     ecut=    70.00 Ry     beta= 0.30
     Davidson diagonalization with overlap

---- Real-time Memory Report at c_bands before calling an iterative solver
            88 MiB given to the printing process from OS
            51 MiB allocation reported by mallinfo(arena+hblkhd)
         12253 MiB available memory on the node where the printing process lives
------------------
     ethr =  4.11E-06,  avg # of iterations =  2.2

     negative rho (up, down):  0.000E+00 6.214E-05

     total cpu time spent up to now is       15.8 secs

     total energy              =    -329.26280874 Ry
     estimated scf accuracy    <       0.00038914 Ry

     total magnetization       =     2.15 Bohr mag/cell
     absolute magnetization    =     2.27 Bohr mag/cell

     iteration # 14     ecut=    70.00 Ry     beta= 0.30
     Davidson diagonalization with overlap

---- Real-time Memory Report at c_bands before calling an iterative solver
            88 MiB given to the printing process from OS
            51 MiB allocation reported by mallinfo(arena+hblkhd)
         12184 MiB available memory on the node where the printing process lives
------------------
     ethr =  2.43E-06,  avg # of iterations =  1.0

     negative rho (up, down):  0.000E+00 7.025E-05

     total cpu time spent up to now is       16.5 secs

     total energy              =    -329.26281852 Ry
     estimated scf accuracy    <       0.00019635 Ry

     total magnetization       =     2.17 Bohr mag/cell
     absolute magnetization    =     2.29 Bohr mag/cell

     iteration # 15     ecut=    70.00 Ry     beta= 0.30
     Davidson diagonalization with overlap

---- Real-time Memory Report at c_bands before calling an iterative solver
            88 MiB given to the printing process from OS
            51 MiB allocation reported by mallinfo(arena+hblkhd)
         12183 MiB available memory on the node where the printing process lives
------------------
     ethr =  1.23E-06,  avg # of iterations =  1.5

     negative rho (up, down):  0.000E+00 6.917E-05

     total cpu time spent up to now is       17.4 secs

     total energy              =    -329.26290333 Ry
     estimated scf accuracy    <       0.00000105 Ry

     total magnetization       =     2.19 Bohr mag/cell
     absolute magnetization    =     2.32 Bohr mag/cell

     iteration # 16     ecut=    70.00 Ry     beta= 0.30
     Davidson diagonalization with overlap

---- Real-time Memory Report at c_bands before calling an iterative solver
            88 MiB given to the printing process from OS
            51 MiB allocation reported by mallinfo(arena+hblkhd)
         12183 MiB available memory on the node where the printing process lives
------------------
     ethr =  6.58E-09,  avg # of iterations =  2.1

     negative rho (up, down):  0.000E+00 7.075E-05

     total cpu time spent up to now is       18.5 secs

     total energy              =    -329.26290148 Ry
     estimated scf accuracy    <       0.00000153 Ry

     total magnetization       =     2.19 Bohr mag/cell
     absolute magnetization    =     2.32 Bohr mag/cell

     iteration # 17     ecut=    70.00 Ry     beta= 0.30
     Davidson diagonalization with overlap

---- Real-time Memory Report at c_bands before calling an iterative solver
            88 MiB given to the printing process from OS
            51 MiB allocation reported by mallinfo(arena+hblkhd)
         11947 MiB available memory on the node where the printing process lives
------------------
     ethr =  6.58E-09,  avg # of iterations =  2.5

     negative rho (up, down):  0.000E+00 6.981E-05

     total cpu time spent up to now is       19.5 secs

     total energy              =    -329.26290383 Ry
     estimated scf accuracy    <       0.00000143 Ry

     total magnetization       =     2.20 Bohr mag/cell
     absolute magnetization    =     2.32 Bohr mag/cell

     iteration # 18     ecut=    70.00 Ry     beta= 0.30
     Davidson diagonalization with overlap

---- Real-time Memory Report at c_bands before calling an iterative solver
            88 MiB given to the printing process from OS
            51 MiB allocation reported by mallinfo(arena+hblkhd)
         12184 MiB available memory on the node where the printing process lives
------------------
     ethr =  6.58E-09,  avg # of iterations =  1.8

     negative rho (up, down):  0.000E+00 7.018E-05

     total cpu time spent up to now is       20.4 secs

     total energy              =    -329.26290514 Ry
     estimated scf accuracy    <       0.00000025 Ry

     total magnetization       =     2.19 Bohr mag/cell
     absolute magnetization    =     2.32 Bohr mag/cell

     iteration # 19     ecut=    70.00 Ry     beta= 0.30
     Davidson diagonalization with overlap

---- Real-time Memory Report at c_bands before calling an iterative solver
            88 MiB given to the printing process from OS
            51 MiB allocation reported by mallinfo(arena+hblkhd)
         12183 MiB available memory on the node where the printing process lives
------------------
     ethr =  1.59E-09,  avg # of iterations =  1.5

     negative rho (up, down):  0.000E+00 7.015E-05

     Magnetic moment per site  (integrated on atomic sphere of radius R)
     atom   1 (R=0.357)  charge= 14.4212  magn=  2.2484

     total cpu time spent up to now is       21.3 secs

     End of self-consistent calculation

 ------ SPIN UP ------------


          k = 0.0000 0.0000 0.0000 (   791 PWs)   bands (ev):

   -70.6047 -36.4245 -36.4245 -36.4245   9.1543  15.2444  15.2444  15.2444
    16.3668  16.3668  41.6397  41.6397

     occupation numbers 
     1.0000   1.0000   1.0000   1.0000   1.0000   1.0000   1.0000   1.0000
     1.0000   1.0000   0.0000   0.0000

          k = 0.0000-0.0625 0.0625 (   779 PWs)   bands (ev):

   -70.6021 -36.4381 -36.4288 -36.4241   9.3122  15.2026  15.2414  15.3276
    16.3254  16.3704  40.6487  41.4242

     occupation numbers 
     1.0000   1.0000   1.0000   1.0000   1.0000   1.0000   1.0000   1.0000
     1.0000   1.0000   0.0000   0.0000

          k = 0.0000-0.1250 0.1250 (   788 PWs)   bands (ev):

   -70.5949 -36.4785 -36.4422 -36.4243   9.7737  15.0839  15.2144  15.5683
    16.2371  16.3805  38.3954  40.6331

     occupation numbers 
     1.0000   1.0000   1.0000   1.0000   1.0000   1.0000   1.0000   1.0000
     1.0000   1.0000   0.0000   0.0000

          k = 0.0000-0.1875 0.1875 (   782 PWs)   bands (ev):

   -70.5840 -36.5374 -36.4622 -36.4241  10.4961  14.9100  15.1414  15.9438
    16.1876  16.4012  35.6493  39.3798

     occupation numbers 
     1.0000   1.0000   1.0000   1.0000   1.0000   1.0000   1.0000   1.0000
     1.0000   1.0000   0.0000   0.0000

          k = 0.0000-0.2500 0.2500 (   784 PWs)   bands (ev):

   -70.5712 -36.6071 -36.4855 -36.4243  11.3742  14.7103  15.0945  16.2242
    16.4128  16.4312  32.7755  38.0551

     occupation numbers 
     1.0000   1.0000   1.0000   1.0000   1.0000   1.0000   1.0000   1.0000
     1.0000   1.0000   0.0000   0.0000

          k = 0.0000-0.3125 0.3125 (   790 PWs)   bands (ev):

   -70.5584 -36.6766 -36.5091 -36.4243  12.1683  14.5159  15.3273  16.3261
    16.4683  16.9145  29.9722  36.8921

     occupation numbers 
     1.0000   1.0000   1.0000   1.0000   1.0000   1.0000   1.0000   1.0000
     1.0001   1.0447   0.0000   0.0000

          k = 0.0000-0.3750 0.3750 (   802 PWs)   bands (ev):

   -70.5476 -36.7345 -36.5299 -36.4248  12.5872  14.3546  16.0356  16.5057
    16.5222  17.3708  27.4046  36.0020

     occupation numbers 
     1.0000   1.0000   1.0000   1.0000   1.0000   1.0000   1.0000   1.0002
     1.0002   0.6082   0.0000   0.0000

          k = 0.0000-0.4375 0.4375 (   794 PWs)   bands (ev):

   -70.5402 -36.7729 -36.5429 -36.4244  12.6927  14.2494  16.3911  16.5342
    17.3554  17.6953  25.3489  35.4455

     occupation numbers 
     1.0000   1.0000   1.0000   1.0000   1.0000   1.0000   1.0000   1.0003
     0.6510   0.0405   0.0000   0.0000

          k = 0.0000 0.5000-0.5000 (   798 PWs)   bands (ev):

   -70.5377 -36.7867 -36.5476 -36.4245  12.7025  14.2126  16.4381  16.5445
    17.8133  17.9312  24.4597  35.2563

     occupation numbers 
     1.0000   1.0000   1.0000   1.0000   1.0000   1.0000   1.0000   1.0003
     0.0079   0.0011   0.0000   0.0000

          k =-0.0625-0.0625 0.1250 (   782 PWs)   bands (ev):

   -70.5972 -36.4660 -36.4337 -36.4276   9.6221  15.1481  15.1888  15.5017
    16.2527  16.3840  39.3353  40.2276

     occupation numbers 
     1.0000   1.0000   1.0000   1.0000   1.0000   1.0000   1.0000   1.0000
     1.0000   1.0000   0.0000   0.0000

          k =-0.0625-0.1250 0.1875 (   785 PWs)   bands (ev):

   -70.5882 -36.5149 -36.4495 -36.4294  10.2170  15.0058  15.1196  15.8254
    16.1680  16.4131  37.0434  38.8926

     occupation numbers 
     1.0000   1.0000   1.0000   1.0000   1.0000   1.0000   1.0000   1.0000
     1.0000   1.0000   0.0000   0.0000

          k =-0.0625-0.1875 0.2500 (   787 PWs)   bands (ev):

   -70.5764 -36.5779 -36.4727 -36.4296  11.0302  14.8147  15.0285  16.1503
    16.2718  16.4522  34.2692  37.6596

     occupation numbers 
     1.0000   1.0000   1.0000   1.0000   1.0000   1.0000   1.0000   1.0000
     1.0000   1.0001   0.0000   0.0000

          k =-0.0625-0.2500 0.3125 (   792 PWs)   bands (ev):

   -70.5636 -36.6453 -36.4982 -36.4298  11.9017  14.6151  15.0466  16.2248
    16.4949  16.7962  31.4249  36.5408

     occupation numbers 
     1.0000   1.0000   1.0000   1.0000   1.0000   1.0000   1.0000   1.0000
     1.0001   1.0146   0.0000   0.0000

          k =-0.0625-0.3125 0.3750 (   793 PWs)   bands (ev):

   -70.5517 -36.7068 -36.5218 -36.4300  12.5240  14.4379  15.4338  16.3538
    16.5629  17.3595  28.7142  35.6133

     occupation numbers 
     1.0000   1.0000   1.0000   1.0000   1.0000   1.0000   1.0000   1.0000
     1.0005   0.6396   0.0000   0.0000

          k =-0.0625-0.3750 0.4375 (   796 PWs)   bands (ev):

   -70.5426 -36.7536 -36.5399 -36.4302  12.7465  14.3066  16.0382  16.4463
    16.8310  17.9706  26.3375  34.9482

     occupation numbers 
     1.0000   1.0000   1.0000   1.0000   1.0000   1.0000   1.0000   1.0000
     1.0213   0.0005   0.0000   0.0000

          k =-0.0625 0.5625-0.5000 (   792 PWs)   bands (ev):

   -70.5377 -36.7789 -36.5494 -36.4300  12.7787  14.2370  16.3103  16.4395
    17.2392  18.6131  24.7231  34.6000

     occupation numbers 
     1.0000   1.0000   1.0000   1.0000   1.0000   1.0000   1.0000   1.0000
     0.9315   0.0000   0.0000   0.0000

          k =-0.1250-0.1250 0.2500 (   783 PWs)   bands (ev):

   -70.5781 -36.5668 -36.4628 -36.4371  10.9114  14.9065  14.9389  16.1069
    16.2433  16.4752  35.4618  36.5754

     occupation numbers 
     1.0000   1.0000   1.0000   1.0000   1.0000   1.0000   1.0000   1.0000
     1.0000   1.0001   0.0000   0.0000

          k =-0.1250-0.1875 0.3125 (   786 PWs)   bands (ev):

   -70.5663 -36.6251 -36.4868 -36.4408  11.7589  14.7089  14.8379  16.1231
    16.5271  16.8019  33.0045  35.0272

     occupation numbers 
     1.0000   1.0000   1.0000   1.0000   1.0000   1.0000   1.0000   1.0000
     1.0002   1.0155   0.0000   0.0000

          k =-0.1250-0.2500 0.3750 (   792 PWs)   bands (ev):

   -70.5545 -36.6812 -36.5151 -36.4424  12.5316  14.5162  14.9173  16.2186
    16.5954  17.4605  30.2491  33.9865

     occupation numbers 
     1.0000   1.0000   1.0000   1.0000   1.0000   1.0000   1.0000   1.0000
     1.0008   0.3700   0.0000   0.0000

          k =-0.1250-0.3125 0.4375 (   792 PWs)   bands (ev):

   -70.5444 -36.7274 -36.5401 -36.4433  12.9236  14.3774  15.3058  16.3448
    16.7118  18.2588  27.6576  33.2108

     occupation numbers 
     1.0000   1.0000   1.0000   1.0000   1.0000   1.0000   1.0000   1.0000
     1.0050   0.0000   0.0000   0.0000

          k =-0.1250 0.6250-0.5000 (   785 PWs)   bands (ev):

   -70.5376 -36.7577 -36.5569 -36.4433  12.9991  14.2922  15.7091  16.4051
    16.9362  19.2013  25.5160  32.7170

     occupation numbers 
     1.0000   1.0000   1.0000   1.0000   1.0000   1.0000   1.0000   1.0000
     1.0521   0.0000   0.0000   0.0000

          k =-0.1250 0.5625-0.4375 (   791 PWs)   bands (ev):

   -70.5353 -36.7687 -36.5630 -36.4437  12.9978  14.2628  15.8494  16.4103
    17.0638  19.7739  24.5321  32.5458

     occupation numbers 
     1.0000   1.0000   1.0000   1.0000   1.0000   1.0000   1.0000   1.0000
     1.0833   0.0000   0.0000   0.0000

          k =-0.1875-0.1875 0.3750 (   793 PWs)   bands (ev):

   -70.5555 -36.6704 -36.5115 -36.4501  12.5483  14.5243  14.7528  16.1558
    16.6063  17.5059  31.6569  32.4603

     occupation numbers 
     1.0000   1.0000   1.0000   1.0000   1.0000   1.0000   1.0000   1.0000
     1.0010   0.2679   0.0000   0.0000

          k =-0.1875-0.2500 0.4375 (   787 PWs)   bands (ev):

   -70.5454 -36.7072 -36.5418 -36.4545  13.1339  14.3696  14.8477  16.2533
    16.6851  18.4123  29.2460  31.2529

     occupation numbers 
     1.0000   1.0000   1.0000   1.0000   1.0000   1.0000   1.0000   1.0000
     1.0034   0.0000   0.0000   0.0000

          k =-0.1875 0.6875-0.5000 (   785 PWs)   bands (ev):

   -70.5376 -36.7326 -36.5691 -36.4567  13.3227  14.3111  15.1032  16.3651
    16.7981  19.5482  26.7985  30.5944

     occupation numbers 
     1.0000   1.0000   1.0000   1.0000   1.0000   1.0000   1.0000   1.0000
     1.0149   0.0000   0.0000   0.0000

          k =-0.1875 0.6250-0.4375 (   788 PWs)   bands (ev):

   -70.5335 -36.7457 -36.5852 -36.4576  13.3246  14.2920  15.2930  16.4199
    16.9186  20.6964  24.9572  30.2558

     occupation numbers 
     1.0000   1.0000   1.0000   1.0000   1.0000   1.0000   1.0000   1.0000
     1.0461   0.0000   0.0000   0.0000

          k =-0.2500 0.7500-0.5000 (   784 PWs)   bands (ev):

   -70.5376 -36.7203 -36.5762 -36.4620  13.5471  14.2425  14.8584  16.3445
    16.7537  19.6589  28.1585  28.9437

     occupation numbers 
     1.0000   1.0000   1.0000   1.0000   1.0000   1.0000   1.0000   1.0000
     1.0087   0.0000   0.0000   0.0000

          k =-0.2500 0.6875-0.4375 (   779 PWs)   bands (ev):

   -70.5324 -36.7213 -36.6083 -36.4652  13.6757  14.2569  14.8722  16.4547
    16.8045  21.1408  26.0790  28.1906

     occupation numbers 
     1.0000   1.0000   1.0000   1.0000   1.0000   1.0000   1.0000   1.0001
     1.0160   0.0000   0.0000   0.0000

          k =-0.2500 0.6250-0.3750 (   782 PWs)   bands (ev):

   -70.5306 -36.7192 -36.6226 -36.4663  13.6780  14.2986  14.8710  16.5030
    16.8268  22.1909  24.7560  28.0028

     occupation numbers 
     1.0000   1.0000   1.0000   1.0000   1.0000   1.0000   1.0000   1.0001
     1.0204   0.0000   0.0000   0.0000

          k =-0.3125 0.6875-0.3750 (   786 PWs)   bands (ev):

   -70.5297 -36.6962 -36.6501 -36.4694  13.8835  14.3240  14.6169  16.5869
    16.7398  22.9254  24.9984  26.7000

     occupation numbers 
     1.0000   1.0000   1.0000   1.0000   1.0000   1.0000   1.0000   1.0007
     1.0073   0.0000   0.0000   0.0000

          k = 0.0000 0.0000 0.1250 (   783 PWs)   bands (ev):

   -70.5996 -36.4424 -36.4337 -36.4337   9.4684  15.2437  15.2437  15.3284
    16.2306  16.4203  40.0202  41.3018

     occupation numbers 
     1.0000   1.0000   1.0000   1.0000   1.0000   1.0000   1.0000   1.0000
     1.0000   1.0000   0.0000   0.0000

          k = 0.0000-0.0625 0.1875 (   782 PWs)   bands (ev):

   -70.5924 -36.4791 -36.4470 -36.4360   9.9247  15.1527  15.2313  15.5465
    16.0900  16.4676  38.2948  40.3383

     occupation numbers 
     1.0000   1.0000   1.0000   1.0000   1.0000   1.0000   1.0000   1.0000
     1.0000   1.0001   0.0000   0.0000

          k = 0.0000-0.1250 0.2500 (   789 PWs)   bands (ev):

   -70.5817 -36.5376 -36.4672 -36.4362  10.6378  14.9860  15.1582  15.9213
    16.0124  16.5143  35.7288  38.9868

     occupation numbers 
     1.0000   1.0000   1.0000   1.0000   1.0000   1.0000   1.0000   1.0000
     1.0000   1.0002   0.0000   0.0000

          k = 0.0000-0.1875 0.3125 (   786 PWs)   bands (ev):

   -70.5690 -36.6061 -36.4908 -36.4355  11.5021  14.7925  15.0646  16.0711
    16.3920  16.5719  32.8852  37.7237

     occupation numbers 
     1.0000   1.0000   1.0000   1.0000   1.0000   1.0000   1.0000   1.0000
     1.0000   1.0005   0.0000   0.0000

          k = 0.0000-0.2500 0.3750 (   786 PWs)   bands (ev):

   -70.5563 -36.6741 -36.5143 -36.4350  12.2818  14.6036  15.1618  16.2367
    16.6869  16.8969  30.0798  36.6439

     occupation numbers 
     1.0000   1.0000   1.0000   1.0000   1.0000   1.0000   1.0000   1.0000
     1.0035   1.0390   0.0000   0.0000

          k = 0.0000-0.3125 0.4375 (   790 PWs)   bands (ev):

   -70.5455 -36.7313 -36.5347 -36.4346  12.6896  14.4471  15.5512  16.3728
    17.1162  17.3570  27.4962  35.8189

     occupation numbers 
     1.0000   1.0000   1.0000   1.0000   1.0000   1.0000   1.0000   1.0000
     1.0725   0.6465   0.0000   0.0000

          k = 0.0000-0.3750 0.5000 (   794 PWs)   bands (ev):

   -70.5383 -36.7695 -36.5481 -36.4345  12.7866  14.3443  15.8931  16.3847
    17.6841  18.0127  25.4042  35.3021

     occupation numbers 
     1.0000   1.0000   1.0000   1.0000   1.0000   1.0000   1.0000   1.0000
     0.0464   0.0002   0.0000   0.0000

          k = 0.0000 0.5625-0.4375 (   794 PWs)   bands (ev):

   -70.5358 -36.7831 -36.5527 -36.4342  12.7931  14.3086  16.0158  16.3650
    17.8033  18.5767  24.4810  35.1263

     occupation numbers 
     1.0000   1.0000   1.0000   1.0000   1.0000   1.0000   1.0000   1.0000
     0.0092   0.0000   0.0000   0.0000

          k =-0.0625-0.0625 0.2500 (   784 PWs)   bands (ev):

   -70.5835 -36.5196 -36.4612 -36.4459  10.5036  15.1136  15.1576  15.8060
    15.9347  16.5428  36.8060  38.2719

     occupation numbers 
     1.0000   1.0000   1.0000   1.0000   1.0000   1.0000   1.0000   1.0000
     1.0000   1.0003   0.0000   0.0000

          k =-0.0625-0.1250 0.3125 (   786 PWs)   bands (ev):

   -70.5719 -36.5785 -36.4833 -36.4486  11.2904  14.9507  15.0417  15.9057
    16.2333  16.6270  34.4392  36.5713

     occupation numbers 
     1.0000   1.0000   1.0000   1.0000   1.0000   1.0000   1.0000   1.0000
     1.0000   1.0014   0.0000   0.0000

          k =-0.0625-0.1875 0.3750 (   792 PWs)   bands (ev):

   -70.5594 -36.6430 -36.5092 -36.4489  12.1277  14.7461  14.9636  16.0326
    16.6370  16.8671  31.6408  35.4057

     occupation numbers 
     1.0000   1.0000   1.0000   1.0000   1.0000   1.0000   1.0000   1.0000
     1.0016   1.0302   0.0000   0.0000

          k =-0.0625-0.2500 0.4375 (   788 PWs)   bands (ev):

   -70.5477 -36.7021 -36.5331 -36.4482  12.7243  14.5865  15.0753  16.2210
    16.8809  17.4846  28.9170  34.4920

     occupation numbers 
     1.0000   1.0000   1.0000   1.0000   1.0000   1.0000   1.0000   1.0000
     1.0341   0.3136   0.0000   0.0000

          k =-0.0625-0.3125 0.5000 (   786 PWs)   bands (ev):

   -70.5388 -36.7471 -36.5513 -36.4477  12.9298  14.4744  15.3577  16.3079
    17.2663  18.3399  26.4941  33.8328

     occupation numbers 
     1.0000   1.0000   1.0000   1.0000   1.0000   1.0000   1.0000   1.0000
     0.8762   0.0000   0.0000   0.0000

          k =-0.0625 0.6250-0.4375 (   790 PWs)   bands (ev):

   -70.5340 -36.7716 -36.5614 -36.4475  12.9507  14.4140  15.5565  16.3072
    17.5426  19.2636  24.7925  33.4816

     occupation numbers 
     1.0000   1.0000   1.0000   1.0000   1.0000   1.0000   1.0000   1.0000
     0.1992   0.0000   0.0000   0.0000

          k =-0.1250 0.1250 0.1250 (   791 PWs)   bands (ev):

   -70.5905 -36.5091 -36.4344 -36.4344  10.0724  15.0450  15.0450  15.8189
    16.3043  16.3043  38.1976  38.1976

     occupation numbers 
     1.0000   1.0000   1.0000   1.0000   1.0000   1.0000   1.0000   1.0000
     1.0000   1.0000   0.0000   0.0000

          k =-0.1250-0.1250 0.3750 (   780 PWs)   bands (ev):

   -70.5604 -36.6289 -36.5061 -36.4568  12.0749  14.7458  14.9697  15.9147
    16.5974  16.9073  33.0179  33.9253

     occupation numbers 
     1.0000   1.0000   1.0000   1.0000   1.0000   1.0000   1.0000   1.0000
     1.0008   1.0424   0.0000   0.0000

          k =-0.1250-0.1875 0.4375 (   788 PWs)   bands (ev):

   -70.5490 -36.6791 -36.5346 -36.4605  12.7890  14.5277  14.9520  16.0465
    16.7569  17.6109  30.5483  32.5622

     occupation numbers 
     1.0000   1.0000   1.0000   1.0000   1.0000   1.0000   1.0000   1.0000
     1.0091   0.1050   0.0000   0.0000

          k =-0.1250-0.2500 0.5000 (   788 PWs)   bands (ev):

   -70.5392 -36.7209 -36.5606 -36.4615  13.1674  14.4558  14.9915  16.2119
    16.9610  18.5964  27.9384  31.7553

     occupation numbers 
     1.0000   1.0000   1.0000   1.0000   1.0000   1.0000   1.0000   1.0000
     1.0607   0.0000   0.0000   0.0000

          k =-0.1250 0.6875-0.4375 (   788 PWs)   bands (ev):

   -70.5327 -36.7484 -36.5786 -36.4619  13.2327  14.4650  15.0841  16.2901
    17.2128  19.8005  25.7063  31.2479

     occupation numbers 
     1.0000   1.0000   1.0000   1.0000   1.0000   1.0000   1.0000   1.0000
     0.9773   0.0000   0.0000   0.0000

          k =-0.1250 0.6250-0.3750 (   795 PWs)   bands (ev):

   -70.5304 -36.7586 -36.5850 -36.4621  13.2245  14.4689  15.1318  16.3045
    17.3263  20.5525  24.6107  31.0717

     occupation numbers 
     1.0000   1.0000   1.0000   1.0000   1.0000   1.0000   1.0000   1.0000
     0.7297   0.0000   0.0000   0.0000

          k =-0.1875 0.1875 0.1250 (   791 PWs)   bands (ev):

   -70.5804 -36.5640 -36.4532 -36.4349  10.7796  14.8535  14.9265  16.2430
    16.2604  16.3647  35.6986  37.0278

     occupation numbers 
     1.0000   1.0000   1.0000   1.0000   1.0000   1.0000   1.0000   1.0000
     1.0000   1.0000   0.0000   0.0000

          k =-0.1875-0.1875 0.5000 (   786 PWs)   bands (ev):

   -70.5393 -36.7079 -36.5668 -36.4670  13.3262  14.2927  14.9606  16.1576
    16.8616  18.6817  29.3924  30.0734

     occupation numbers 
     1.0000   1.0000   1.0000   1.0000   1.0000   1.0000   1.0000   1.0000
     1.0287   0.0000   0.0000   0.0000

          k =-0.1875 0.7500-0.4375 (   784 PWs)   bands (ev):

   -70.5319 -36.7257 -36.5976 -36.4699  13.5755  14.2527  14.8884  16.3170
    16.9835  20.0489  27.1233  29.1688

     occupation numbers 
     1.0000   1.0000   1.0000   1.0000   1.0000   1.0000   1.0000   1.0000
     1.0681   0.0000   0.0000   0.0000

          k =-0.1875 0.6875-0.3750 (   785 PWs)   bands (ev):

   -70.5279 -36.7336 -36.6168 -36.4708  13.5841  14.4011  14.7630  16.4092
    17.0902  21.4688  25.1333  28.8082

     occupation numbers 
     1.0000   1.0000   1.0000   1.0000   1.0000   1.0000   1.0000   1.0000
     1.0807   0.0000   0.0000   0.0000

          k =-0.2500 0.2500 0.1250 (   794 PWs)   bands (ev):

   -70.5684 -36.6243 -36.4794 -36.4359  11.6460  14.6504  14.8340  16.2595
    16.4213  16.7976  32.9273  35.9362

     occupation numbers 
     1.0000   1.0000   1.0000   1.0000   1.0000   1.0000   1.0000   1.0000
     1.0000   1.0148   0.0000   0.0000

          k =-0.2500 0.1875 0.1875 (   788 PWs)   bands (ev):

   -70.5701 -36.6167 -36.4651 -36.4452  11.5561  14.7021  14.7115  16.2655
    16.4093  16.8091  34.2042  34.9519

     occupation numbers 
     1.0000   1.0000   1.0000   1.0000   1.0000   1.0000   1.0000   1.0000
     1.0000   1.0169   0.0000   0.0000

          k =-0.2500 0.7500-0.3750 (   788 PWs)   bands (ev):

   -70.5271 -36.7168 -36.6368 -36.4738  13.9058  14.1390  14.6715  16.5093
    16.9484  21.7538  26.0810  27.2954

     occupation numbers 
     1.0000   1.0000   1.0000   1.0000   1.0000   1.0000   1.0000   1.0002
     1.0563   0.0000   0.0000   0.0000

          k =-0.2500 0.6875-0.3125 (   782 PWs)   bands (ev):

   -70.5254 -36.7051 -36.6588 -36.4746  13.9626  14.3185  14.4225  16.6263
    16.9022  23.1232  24.7074  26.8883

     occupation numbers 
     1.0000   1.0000   1.0000   1.0000   1.0000   1.0000   1.0000   1.0014
     1.0407   0.0000   0.0000   0.0000

          k =-0.3125 0.3125 0.1250 (   796 PWs)   bands (ev):

   -70.5564 -36.6823 -36.5077 -36.4366  12.4358  14.4635  14.9681  16.3254
    16.4713  17.4298  30.1468  34.9977

     occupation numbers 
     1.0000   1.0000   1.0000   1.0000   1.0000   1.0000   1.0000   1.0000
     1.0001   0.4476   0.0000   0.0000

          k =-0.3125 0.2500 0.1875 (   790 PWs)   bands (ev):

   -70.5589 -36.6667 -36.4921 -36.4496  12.4067  14.5042  14.6325  16.2976
    16.4773  17.4863  31.7400  33.6529

     occupation numbers 
     1.0000   1.0000   1.0000   1.0000   1.0000   1.0000   1.0000   1.0000
     1.0001   0.3099   0.0000   0.0000

          k =-0.3750 0.3750 0.1250 (   788 PWs)   bands (ev):

   -70.5462 -36.7296 -36.5323 -36.4369  12.8333  14.3145  15.5428  16.4081
    16.5123  18.1598  27.5656  34.2756

     occupation numbers 
     1.0000   1.0000   1.0000   1.0000   1.0000   1.0000   1.0000   1.0000
     1.0002   0.0000   0.0000   0.0000

          k =-0.3750 0.3125 0.1875 (   789 PWs)   bands (ev):

   -70.5486 -36.7080 -36.5231 -36.4518  13.0134  14.3451  14.8568  16.3661
    16.5323  18.3034  29.0653  32.7823

     occupation numbers 
     1.0000   1.0000   1.0000   1.0000   1.0000   1.0000   1.0000   1.0000
     1.0003   0.0000   0.0000   0.0000

          k =-0.3750 0.2500 0.2500 (   790 PWs)   bands (ev):

   -70.5495 -36.6992 -36.5172 -36.4609  13.1333  14.3600  14.5585  16.3404
    16.5483  18.3563  30.5009  31.2226

     occupation numbers 
     1.0000   1.0000   1.0000   1.0000   1.0000   1.0000   1.0000   1.0000
     1.0003   0.0000   0.0000   0.0000

          k = 0.5625-0.5625 0.1250 (   792 PWs)   bands (ev):

   -70.5394 -36.7613 -36.5491 -36.4375  12.9124  14.2183  16.2227  16.4756
    16.5395  18.9920  25.4570  33.8200

     occupation numbers 
     1.0000   1.0000   1.0000   1.0000   1.0000   1.0000   1.0000   1.0001
     1.0003   0.0000   0.0000   0.0000

          k = 0.5625-0.6250 0.1875 (   789 PWs)   bands (ev):

   -70.5407 -36.7372 -36.5495 -36.4532  13.1812  14.2376  15.4066  16.4396
    16.5809  19.2920  26.6370  32.1781

     occupation numbers 
     1.0000   1.0000   1.0000   1.0000   1.0000   1.0000   1.0000   1.0000
     1.0006   0.0000   0.0000   0.0000

          k = 0.5625-0.6875 0.2500 (   783 PWs)   bands (ev):

   -70.5414 -36.7186 -36.5499 -36.4666  13.4993  14.2587  14.7878  16.4097
    16.6034  19.4470  28.1723  30.1900

     occupation numbers 
     1.0000   1.0000   1.0000   1.0000   1.0000   1.0000   1.0000   1.0000
     1.0009   0.0000   0.0000   0.0000

          k = 0.5000-0.5000 0.1250 (   792 PWs)   bands (ev):

   -70.5370 -36.7725 -36.5552 -36.4373  12.9129  14.1855  16.4640  16.5370
    16.5495  19.4922  24.5098  33.6644

     occupation numbers 
     1.0000   1.0000   1.0000   1.0000   1.0000   1.0000   1.0001   1.0003
     1.0004   0.0000   0.0000   0.0000

          k = 0.5000-0.5625 0.1875 (   787 PWs)   bands (ev):

   -70.5365 -36.7520 -36.5646 -36.4538  13.1786  14.1829  15.8080  16.4782
    16.6335  20.2704  24.8815  31.8631

     occupation numbers 
     1.0000   1.0000   1.0000   1.0000   1.0000   1.0000   1.0000   1.0001
     1.0015   0.0000   0.0000   0.0000

          k = 0.5000-0.6250 0.2500 (   786 PWs)   bands (ev):

   -70.5361 -36.7267 -36.5780 -36.4698  13.5274  14.2105  15.1491  16.4778
    16.6479  20.7313  25.9198  29.6961

     occupation numbers 
     1.0000   1.0000   1.0000   1.0000   1.0000   1.0000   1.0000   1.0001
     1.0019   0.0000   0.0000   0.0000

          k = 0.5000-0.6875 0.3125 (   779 PWs)   bands (ev):

   -70.5359 -36.7136 -36.5857 -36.4759  13.7467  14.2452  14.8023  16.4757
    16.6461  20.8691  27.1603  28.0778

     occupation numbers 
     1.0000   1.0000   1.0000   1.0000   1.0000   1.0000   1.0000   1.0001
     1.0019   0.0000   0.0000   0.0000

          k = 0.4375-0.5625 0.2500 (   790 PWs)   bands (ev):

   -70.5342 -36.7285 -36.5894 -36.4707  13.5093  14.1958  15.2968  16.5045
    16.6714  21.5838  24.7302  29.5302

     occupation numbers 
     1.0000   1.0000   1.0000   1.0000   1.0000   1.0000   1.0000   1.0001
     1.0028   0.0000   0.0000   0.0000

          k = 0.4375-0.6250 0.3125 (   790 PWs)   bands (ev):

   -70.5330 -36.7002 -36.6176 -36.4804  13.7861  14.2871  14.8459  16.5385
    16.6552  22.4196  25.3130  27.4908

     occupation numbers 
     1.0000   1.0000   1.0000   1.0000   1.0000   1.0000   1.0000   1.0003
     1.0022   0.0000   0.0000   0.0000

          k = 0.3750-0.6250 0.3750 (   778 PWs)   bands (ev):

   -70.5318 -36.6609 -36.6609 -36.4834  13.8643  14.5330  14.5330  16.6090
    16.6090  24.1787  24.1787  26.4849

     occupation numbers 
     1.0000   1.0000   1.0000   1.0000   1.0000   1.0000   1.0000   1.0010
     1.0010   0.0000   0.0000   0.0000

          k = 0.0000 0.0000 0.2500 (   787 PWs)   bands (ev):

   -70.5855 -36.4912 -36.4608 -36.4608  10.3646  15.2690  15.2690  15.5694
    15.8397  16.5716  37.7128  39.5498

     occupation numbers 
     1.0000   1.0000   1.0000   1.0000   1.0000   1.0000   1.0000   1.0000
     1.0000   1.0005   0.0000   0.0000

          k = 0.0000-0.0625 0.3125 (   781 PWs)   bands (ev):

   -70.5749 -36.5388 -36.4808 -36.4674  11.0465  15.1910  15.2205  15.6836
    15.8759  16.6749  35.9243  38.1049

     occupation numbers 
     1.0000   1.0000   1.0000   1.0000   1.0000   1.0000   1.0000   1.0000
     1.0000   1.0029   0.0000   0.0000

          k = 0.0000-0.1250 0.3750 (   786 PWs)   bands (ev):

   -70.5627 -36.6033 -36.5049 -36.4672  11.8624  14.9920  15.0279  15.8097
    16.3390  16.8147  33.2109  36.9692

     occupation numbers 
     1.0000   1.0000   1.0000   1.0000   1.0000   1.0000   1.0000   1.0000
     1.0000   1.0179   0.0000   0.0000

          k = 0.0000-0.1875 0.4375 (   785 PWs)   bands (ev):

   -70.5503 -36.6679 -36.5290 -36.4657  12.5893  14.8447  14.8588  16.0459
    16.8488  17.1301  30.4010  35.9691

     occupation numbers 
     1.0000   1.0000   1.0000   1.0000   1.0000   1.0000   1.0000   1.0000
     1.0254   1.0654   0.0000   0.0000

          k = 0.0000-0.2500 0.5000 (   789 PWs)   bands (ev):

   -70.5398 -36.7227 -36.5495 -36.4644  12.9614  14.7162  14.9356  16.1876
    17.3175  17.8914  27.7742  35.0454

     occupation numbers 
     1.0000   1.0000   1.0000   1.0000   1.0000   1.0000   1.0000   1.0000
     0.7528   0.0022   0.0000   0.0000

          k = 0.0000-0.3125 0.5625 (   789 PWs)   bands (ev):

   -70.5328 -36.7590 -36.5633 -36.4633  13.0326  14.6221  15.1293  16.2042
    17.6526  19.0287  25.5822  34.4276

     occupation numbers 
     1.0000   1.0000   1.0000   1.0000   1.0000   1.0000   1.0000   1.0000
     0.0671   0.0000   0.0000   0.0000

          k = 0.0000 0.6250-0.3750 (   798 PWs)   bands (ev):

   -70.5305 -36.7723 -36.5680 -36.4634  13.0290  14.5892  15.2177  16.1923
    17.7751  19.7222  24.5542  34.2091

     occupation numbers 
     1.0000   1.0000   1.0000   1.0000   1.0000   1.0000   1.0000   1.0000
     0.0139   0.0000   0.0000   0.0000

          k =-0.0625-0.0625 0.3750 (   783 PWs)   bands (ev):

   -70.5638 -36.5831 -36.5029 -36.4803  11.7702  15.0122  15.2157  15.6329
    16.1973  16.8395  34.5462  35.5782

     occupation numbers 
     1.0000   1.0000   1.0000   1.0000   1.0000   1.0000   1.0000   1.0000
     1.0000   1.0232   0.0000   0.0000

          k =-0.0625-0.1250 0.4375 (   793 PWs)   bands (ev):

   -70.5518 -36.6398 -36.5293 -36.4833  12.5211  14.7096  15.1317  15.8163
    16.6247  17.1780  32.0584  34.0900

     occupation numbers 
     1.0000   1.0000   1.0000   1.0000   1.0000   1.0000   1.0000   1.0000
     1.0013   1.0245   0.0000   0.0000

          k =-0.0625-0.1875 0.5000 (   789 PWs)   bands (ev):

   -70.5405 -36.6937 -36.5538 -36.4827  13.0538  14.5457  15.0125  16.0410
    17.0038  17.9314  29.3212  33.1462

     occupation numbers 
     1.0000   1.0000   1.0000   1.0000   1.0000   1.0000   1.0000   1.0000
     1.0741   0.0011   0.0000   0.0000

          k =-0.0625-0.2500 0.5625 (   788 PWs)   bands (ev):

   -70.5319 -36.7353 -36.5727 -36.4816  13.2253  14.6021  14.9100  16.1442
    17.3739  19.0968  26.8218  32.4677

     occupation numbers 
     1.0000   1.0000   1.0000   1.0000   1.0000   1.0000   1.0000   1.0000
     0.5998   0.0000   0.0000   0.0000

          k =-0.0625 0.6875-0.3750 (   791 PWs)   bands (ev):

   -70.5273 -36.7582 -36.5830 -36.4809  13.2220  14.7161  14.8426  16.1605
    17.6095  20.3150  24.9567  32.1025

     occupation numbers 
     1.0000   1.0000   1.0000   1.0000   1.0000   1.0000   1.0000   1.0000
     0.1065   0.0000   0.0000   0.0000

          k =-0.1250-0.1250 0.5000 (   790 PWs)   bands (ev):

   -70.5408 -36.6789 -36.5590 -36.4902  13.1110  14.3912  15.1637  15.9415
    16.8611  17.9746  30.8326  31.4549

     occupation numbers 
     1.0000   1.0000   1.0000   1.0000   1.0000   1.0000   1.0000   1.0000
     1.0286   0.0005   0.0000   0.0000

          k =-0.1250-0.1875 0.5625 (   783 PWs)   bands (ev):

   -70.5314 -36.7123 -36.5874 -36.4917  13.4640  14.2271  15.0560  16.1488
    17.0879  19.1835  28.4055  30.4070

     occupation numbers 
     1.0000   1.0000   1.0000   1.0000   1.0000   1.0000   1.0000   1.0000
     1.0812   0.0000   0.0000   0.0000

          k =-0.1250 0.7500-0.3750 (   784 PWs)   bands (ev):

   -70.5252 -36.7347 -36.6078 -36.4917  13.5105  14.3380  14.8794  16.2743
    17.3133  20.6629  26.0617  29.8746

     occupation numbers 
     1.0000   1.0000   1.0000   1.0000   1.0000   1.0000   1.0000   1.0000
     0.7636   0.0000   0.0000   0.0000

          k =-0.1250 0.6875-0.3125 (   786 PWs)   bands (ev):

   -70.5230 -36.7427 -36.6150 -36.4916  13.4857  14.4779  14.7470  16.3084
    17.4110  21.6586  24.7780  29.6906

     occupation numbers 
     1.0000   1.0000   1.0000   1.0000   1.0000   1.0000   1.0000   1.0000
     0.4978   0.0000   0.0000   0.0000

          k =-0.1875 0.8125-0.3750 (   787 PWs)   bands (ev):

   -70.5245 -36.7202 -36.6238 -36.4950  13.7929  14.0037  14.9027  16.3915
    17.1347  20.7602  27.3779  28.2028

     occupation numbers 
     1.0000   1.0000   1.0000   1.0000   1.0000   1.0000   1.0000   1.0000
     1.0626   0.0000   0.0000   0.0000

          k =-0.1875 0.7500-0.3125 (   782 PWs)   bands (ev):

   -70.5207 -36.7188 -36.6493 -36.4958  13.8033  14.1462  14.6797  16.5761
    17.1562  22.4617  25.4298  27.5996

     occupation numbers 
     1.0000   1.0000   1.0000   1.0000   1.0000   1.0000   1.0000   1.0006
     1.0464   0.0000   0.0000   0.0000

          k =-0.2500 0.2500 0.2500 (   784 PWs)   bands (ev):

   -70.5605 -36.6616 -36.4678 -36.4678  12.3640  14.5097  14.5097  16.3876
    16.3876  17.5026  33.1115  33.1115

     occupation numbers 
     1.0000   1.0000   1.0000   1.0000   1.0000   1.0000   1.0000   1.0000
     1.0000   0.2747   0.0000   0.0000

          k =-0.2500 0.7500-0.2500 (   787 PWs)   bands (ev):

   -70.5192 -36.6891 -36.6891 -36.4969  14.0247  14.0247  14.5289  16.9008
    16.9008  24.2976  24.2976  26.5186

     occupation numbers 
     1.0000   1.0000   1.0000   1.0000   1.0000   1.0000   1.0000   1.0402
     1.0402   0.0000   0.0000   0.0000

          k =-0.3125 0.3125 0.2500 (   790 PWs)   bands (ev):

   -70.5509 -36.6965 -36.5006 -36.4710  13.1435  14.3474  14.4409  16.4123
    16.4718  18.3465  30.6642  32.2197

     occupation numbers 
     1.0000   1.0000   1.0000   1.0000   1.0000   1.0000   1.0000   1.0000
     1.0001   0.0000   0.0000   0.0000

          k = 0.6250-0.6250 0.2500 (   787 PWs)   bands (ev):

   -70.5428 -36.7186 -36.5355 -36.4734  13.4873  14.2310  14.7866  16.4616
    16.5245  19.3810  28.0997  31.5581

     occupation numbers 
     1.0000   1.0000   1.0000   1.0000   1.0000   1.0000   1.0000   1.0001
     1.0002   0.0000   0.0000   0.0000

          k = 0.6250-0.6875 0.3125 (   796 PWs)   bands (ev):

   -70.5436 -36.7115 -36.5235 -36.4890  13.7440  14.2526  14.3793  16.4633
    16.5232  19.4151  29.5744  30.1798

     occupation numbers 
     1.0000   1.0000   1.0000   1.0000   1.0000   1.0000   1.0000   1.0001
     1.0002   0.0000   0.0000   0.0000

          k = 0.5625-0.5625 0.2500 (   787 PWs)   bands (ev):

   -70.5374 -36.7287 -36.5635 -36.4749  13.4829  14.1615  15.2966  16.5050
    16.5527  20.5879  25.8618  31.1501

     occupation numbers 
     1.0000   1.0000   1.0000   1.0000   1.0000   1.0000   1.0000   1.0001
     1.0004   0.0000   0.0000   0.0000

          k = 0.5625-0.6250 0.3125 (   788 PWs)   bands (ev):

   -70.5379 -36.7113 -36.5586 -36.4955  13.8358  14.1927  14.7318  16.5080
    16.5635  20.7234  27.3391  29.3624

     occupation numbers 
     1.0000   1.0000   1.0000   1.0000   1.0000   1.0000   1.0000   1.0002
     1.0005   0.0000   0.0000   0.0000

          k = 0.5000-0.5000 0.2500 (   798 PWs)   bands (ev):

   -70.5356 -36.7320 -36.5746 -36.4755  13.4577  14.1384  15.5060  16.5215
    16.5611  21.3721  24.7180  31.0121

     occupation numbers 
     1.0000   1.0000   1.0000   1.0000   1.0000   1.0000   1.0000   1.0002
     1.0004   0.0000   0.0000   0.0000

          k = 0.5000-0.5625 0.3125 (   789 PWs)   bands (ev):

   -70.5348 -36.7043 -36.5861 -36.4980  13.7831  14.1634  15.0330  16.5416
    16.5794  22.1166  25.3365  29.0455

     occupation numbers 
     1.0000   1.0000   1.0000   1.0000   1.0000   1.0000   1.0000   1.0003
     1.0006   0.0000   0.0000   0.0000

          k = 0.5000-0.6250 0.3750 (   789 PWs)   bands (ev):

   -70.5346 -36.6891 -36.5941 -36.5078  13.9367  14.2840  14.7109  16.5465
    16.5884  22.3208  26.4255  27.4542

     occupation numbers 
     1.0000   1.0000   1.0000   1.0000   1.0000   1.0000   1.0000   1.0003
     1.0007   0.0000   0.0000   0.0000

          k = 0.4375-0.5625 0.3750 (   787 PWs)   bands (ev):

   -70.5334 -36.6688 -36.6199 -36.5111  13.9374  14.3439  14.7099  16.5695
    16.5892  23.6656  25.0501  27.0624

     occupation numbers 
     1.0000   1.0000   1.0000   1.0000   1.0000   1.0000   1.0000   1.0005
     1.0007   0.0000   0.0000   0.0000

          k = 0.0000 0.0000 0.3750 (   779 PWs)   bands (ev):

   -70.5649 -36.5537 -36.5015 -36.5015  11.6654  15.2517  15.3881  15.3881
    15.9358  16.8572  35.8524  36.8272

     occupation numbers 
     1.0000   1.0000   1.0000   1.0000   1.0000   1.0000   1.0000   1.0000
     1.0000   1.0276   0.0000   0.0000

          k = 0.0000-0.0625 0.4375 (   788 PWs)   bands (ev):

   -70.5532 -36.6016 -36.5263 -36.5119  12.3752  14.8533  15.3689  15.6078
    16.2908  17.1283  33.7228  35.4692

     occupation numbers 
     1.0000   1.0000   1.0000   1.0000   1.0000   1.0000   1.0000   1.0000
     1.0000   1.0664   0.0000   0.0000

          k = 0.0000-0.1250 0.5000 (   792 PWs)   bands (ev):

   -70.5414 -36.6594 -36.5512 -36.5113  12.9799  14.5224  15.2540  15.8736
    16.7845  17.6788  30.9191  34.2753

     occupation numbers 
     1.0000   1.0000   1.0000   1.0000   1.0000   1.0000   1.0000   1.0000
     1.0127   0.0495   0.0000   0.0000

          k = 0.0000-0.1875 0.5625 (   786 PWs)   bands (ev):

   -70.5313 -36.7099 -36.5716 -36.5086  13.2810  14.3933  15.1412  16.0281
    17.2601  18.7175  28.2406  33.3160

     occupation numbers 
     1.0000   1.0000   1.0000   1.0000   1.0000   1.0000   1.0000   1.0000
     0.8897   0.0000   0.0000   0.0000

          k = 0.0000-0.2500 0.6250 (   782 PWs)   bands (ev):

   -70.5246 -36.7436 -36.5855 -36.5064  13.3088  14.4472  15.0633  16.0664
    17.6057  20.1128  25.9143  32.6826

     occupation numbers 
     1.0000   1.0000   1.0000   1.0000   1.0000   1.0000   1.0000   1.0000
     0.1107   0.0000   0.0000   0.0000

          k = 0.0000 0.6875-0.3125 (   794 PWs)   bands (ev):

   -70.5224 -36.7563 -36.5906 -36.5059  13.2879  14.4917  15.0356  16.0667
    17.7327  21.0185  24.7097  32.4596

     occupation numbers 
     1.0000   1.0000   1.0000   1.0000   1.0000   1.0000   1.0000   1.0000
     0.0250   0.0000   0.0000   0.0000

          k =-0.0625-0.0625 0.5000 (   785 PWs)   bands (ev):

   -70.5417 -36.6395 -36.5534 -36.5253  12.9535  14.5041  15.4574  15.7496
    16.6126  17.6490  32.4505  32.9932

     occupation numbers 
     1.0000   1.0000   1.0000   1.0000   1.0000   1.0000   1.0000   1.0000
     1.0011   0.0698   0.0000   0.0000

          k =-0.0625-0.1250 0.5625 (   787 PWs)   bands (ev):

   -70.5311 -36.6840 -36.5799 -36.5268  13.3497  14.2046  15.3824  15.9909
    17.0010  18.6127  29.8976  31.8115

     occupation numbers 
     1.0000   1.0000   1.0000   1.0000   1.0000   1.0000   1.0000   1.0000
     1.0733   0.0000   0.0000   0.0000

          k =-0.0625-0.1875 0.6250 (   783 PWs)   bands (ev):

   -70.5229 -36.7202 -36.5999 -36.5253  13.4668  14.1147  15.2712  16.1393
    17.3659  20.0146  27.3318  31.0833

     occupation numbers 
     1.0000   1.0000   1.0000   1.0000   1.0000   1.0000   1.0000   1.0000
     0.6218   0.0000   0.0000   0.0000

          k =-0.0625 0.7500-0.3125 (   787 PWs)   bands (ev):

   -70.5185 -36.7407 -36.6107 -36.5240  13.4257  14.1654  15.1940  16.1901
    17.5952  21.5182  25.2632  30.6898

     occupation numbers 
     1.0000   1.0000   1.0000   1.0000   1.0000   1.0000   1.0000   1.0000
     0.1229   0.0000   0.0000   0.0000

          k =-0.1250-0.1250 0.6250 (   787 PWs)   bands (ev):

   -70.5223 -36.7057 -36.6127 -36.5307  13.5990  13.9223  15.3215  16.2655
    17.1838  19.9896  28.8392  29.3816

     occupation numbers 
     1.0000   1.0000   1.0000   1.0000   1.0000   1.0000   1.0000   1.0000
     1.0177   0.0000   0.0000   0.0000

          k =-0.1250 0.8125-0.3125 (   782 PWs)   bands (ev):

   -70.5164 -36.7195 -36.6373 -36.5307  13.6235  13.8743  15.1951  16.4886
    17.3416  21.6715  26.5991  28.6305

     occupation numbers 
     1.0000   1.0000   1.0000   1.0000   1.0000   1.0000   1.0000   1.0001
     0.6885   0.0000   0.0000   0.0000

          k =-0.1250 0.7500-0.2500 (   784 PWs)   bands (ev):

   -70.5143 -36.7244 -36.6466 -36.5304  13.5706  13.9249  15.1351  16.5614
    17.4124  22.9520  25.0762  28.4276

     occupation numbers 
     1.0000   1.0000   1.0000   1.0000   1.0000   1.0000   1.0000   1.0004
     0.4940   0.0000   0.0000   0.0000

          k =-0.1875 0.8125-0.2500 (   786 PWs)   bands (ev):

   -70.5129 -36.7064 -36.6727 -36.5317  13.7077  13.7611  15.0863  16.8554
    17.2054  23.5445  25.6416  26.9158

     occupation numbers 
     1.0000   1.0000   1.0000   1.0000   1.0000   1.0000   1.0000   1.0271
     0.9886   0.0000   0.0000   0.0000

          k = 0.6250-0.6250 0.3750 (   790 PWs)   bands (ev):

   -70.5385 -36.7058 -36.5284 -36.5284  14.1933  14.1933  14.3107  16.5334
    16.5334  20.7167  28.8977  28.8977

     occupation numbers 
     1.0000   1.0000   1.0000   1.0000   1.0000   1.0000   1.0000   1.0003
     1.0003   0.0000   0.0000   0.0000

          k = 0.5625-0.5625 0.3750 (   784 PWs)   bands (ev):

   -70.5351 -36.6863 -36.5702 -36.5316  14.1071  14.1671  14.6543  16.5560
    16.5650  22.2579  26.7353  28.4856

     occupation numbers 
     1.0000   1.0000   1.0000   1.0000   1.0000   1.0000   1.0000   1.0004
     1.0005   0.0000   0.0000   0.0000

          k = 0.5000-0.5000 0.3750 (   790 PWs)   bands (ev):

   -70.5339 -36.6715 -36.5934 -36.5330  14.0693  14.1602  14.7820  16.5669
    16.5730  23.4908  25.2335  28.3472

     occupation numbers 
     1.0000   1.0000   1.0000   1.0000   1.0000   1.0000   1.0000   1.0005
     1.0005   0.0000   0.0000   0.0000

          k = 0.5000-0.5625 0.4375 (   793 PWs)   bands (ev):

   -70.5336 -36.6502 -36.5995 -36.5518  14.1368  14.3291  14.5516  16.5730
    16.5764  24.0099  25.9761  26.9632

     occupation numbers 
     1.0000   1.0000   1.0000   1.0000   1.0000   1.0000   1.0000   1.0005
     1.0006   0.0000   0.0000   0.0000

          k = 0.0000 0.0000 0.5000 (   771 PWs)   bands (ev):

   -70.5419 -36.6114 -36.5510 -36.5510  12.8960  14.5592  15.6671  15.6671
    16.3744  17.5890  34.0079  34.0079

     occupation numbers 
     1.0000   1.0000   1.0000   1.0000   1.0000   1.0000   1.0000   1.0000
     1.0000   0.1306   0.0000   0.0000

          k = 0.0000-0.0625 0.5625 (   786 PWs)   bands (ev):

   -70.5308 -36.6509 -36.5769 -36.5621  13.2747  14.2032  15.7295  15.8974
    16.7391  18.3755  31.5240  32.7377

     occupation numbers 
     1.0000   1.0000   1.0000   1.0000   1.0000   1.0000   1.0000   1.0000
     1.0072   0.0000   0.0000   0.0000

          k = 0.0000-0.1250 0.6250 (   782 PWs)   bands (ev):

   -70.5213 -36.6947 -36.5981 -36.5599  13.4474  13.9448  15.6810  16.0811
    17.1974  19.6284  28.8564  31.7238

     occupation numbers 
     1.0000   1.0000   1.0000   1.0000   1.0000   1.0000   1.0000   1.0000
     1.0001   0.0000   0.0000   0.0000

          k = 0.0000-0.1875 0.6875 (   783 PWs)   bands (ev):

   -70.5150 -36.7256 -36.6122 -36.5571  13.4234  13.8793  15.6312  16.1641
    17.5510  21.2350  26.4262  31.0553

     occupation numbers 
     1.0000   1.0000   1.0000   1.0000   1.0000   1.0000   1.0000   1.0000
     0.1853   0.0000   0.0000   0.0000

          k = 0.0000 0.7500-0.2500 (   782 PWs)   bands (ev):

   -70.5127 -36.7366 -36.6171 -36.5558  13.3830  13.8849  15.6121  16.1848
    17.6834  22.4042  24.9897  30.8199

     occupation numbers 
     1.0000   1.0000   1.0000   1.0000   1.0000   1.0000   1.0000   1.0000
     0.0468   0.0000   0.0000   0.0000

          k =-0.0625-0.0625 0.6250 (   785 PWs)   bands (ev):

   -70.5208 -36.6773 -36.6051 -36.5734  13.4421  13.8840  15.8175  16.1686
    17.0223  19.5092  30.3763  30.6696

     occupation numbers 
     1.0000   1.0000   1.0000   1.0000   1.0000   1.0000   1.0000   1.0000
     1.0786   0.0000   0.0000   0.0000

          k =-0.0625-0.1250 0.6875 (   782 PWs)   bands (ev):

   -70.5131 -36.7050 -36.6277 -36.5729  13.4748  13.6754  15.7770  16.4063
    17.3413  21.0513  27.9799  29.7682

     occupation numbers 
     1.0000   1.0000   1.0000   1.0000   1.0000   1.0000   1.0000   1.0000
     0.6895   0.0000   0.0000   0.0000

          k =-0.0625 0.8125-0.2500 (   786 PWs)   bands (ev):

   -70.5089 -36.7219 -36.6398 -36.5714  13.3994  13.6452  15.7387  16.5115
    17.5573  22.7800  25.7611  29.3363

     occupation numbers 
     1.0000   1.0000   1.0000   1.0000   1.0000   1.0000   1.0000   1.0002
     0.1753   0.0000   0.0000   0.0000

          k =-0.1250 0.8750-0.2500 (   779 PWs)   bands (ev):

   -70.5075 -36.7078 -36.6586 -36.5740  13.4814  13.4862  15.7329  16.7975
    17.3902  22.8005  27.0800  27.7438

     occupation numbers 
     1.0000   1.0000   1.0000   1.0000   1.0000   1.0000   1.0000   1.0148
     0.5546   0.0000   0.0000   0.0000

          k =-0.1250 0.8125-0.1875 (   789 PWs)   bands (ev):

   -70.5057 -36.7061 -36.6738 -36.5740  13.4129  13.4886  15.7082  16.9732
    17.3814  24.3487  25.5159  27.3409

     occupation numbers 
     1.0000   1.0000   1.0000   1.0000   1.0000   1.0000   1.0000   1.0648
     0.5790   0.0000   0.0000   0.0000

          k = 0.5000-0.5000 0.5000 (   784 PWs)   bands (ev):

   -70.5332 -36.6014 -36.6014 -36.6014  14.3489  14.3489  14.3489  16.5780
    16.5780  25.8250  25.8250  25.8250

     occupation numbers 
     1.0000   1.0000   1.0000   1.0000   1.0000   1.0000   1.0000   1.0006
     1.0006   0.0000   0.0000   0.0000

          k = 0.0000 0.0000 0.6250 (   791 PWs)   bands (ev):

   -70.5203 -36.6533 -36.6027 -36.6027  13.3837  13.8733  16.1321  16.1321
    16.8199  19.3526  31.3976  31.3976

     occupation numbers 
     1.0000   1.0000   1.0000   1.0000   1.0000   1.0000   1.0000   1.0000
     1.0189   0.0000   0.0000   0.0000

          k = 0.0000-0.0625 0.6875 (   786 PWs)   bands (ev):

   -70.5113 -36.6807 -36.6245 -36.6106  13.3795  13.5853  16.2643  16.3819
    17.1525  20.7146  29.4189  30.3231

     occupation numbers 
     1.0000   1.0000   1.0000   1.0000   1.0000   1.0000   1.0000   1.0000
     1.0496   0.0000   0.0000   0.0000

          k = 0.0000-0.1250 0.7500 (   790 PWs)   bands (ev):

   -70.5054 -36.7076 -36.6391 -36.6078  13.3082  13.4349  16.2668  16.5329
    17.4970  22.4176  27.0833  29.6103

     occupation numbers 
     1.0000   1.0000   1.0000   1.0000   1.0000   1.0000   1.0000   1.0003
     0.2865   0.0000   0.0000   0.0000

          k = 0.0000 0.8125-0.1875 (   790 PWs)   bands (ev):

   -70.5033 -36.7176 -36.6440 -36.6063  13.2542  13.4085  16.2604  16.5804
    17.6341  23.8391  25.4387  29.3580

     occupation numbers 
     1.0000   1.0000   1.0000   1.0000   1.0000   1.0000   1.0000   1.0006
     0.0823   0.0000   0.0000   0.0000

          k =-0.0625-0.0625 0.7500 (   788 PWs)   bands (ev):

   -70.5041 -36.6941 -36.6496 -36.6179  13.2920  13.3463  16.3626  16.7518
    17.3579  22.2667  28.4592  28.6963

     occupation numbers 
     1.0000   1.0000   1.0000   1.0000   1.0000   1.0000   1.0000   1.0085
     0.6441   0.0000   0.0000   0.0000

          k =-0.0625 0.8750-0.1875 (   794 PWs)   bands (ev):

   -70.5002 -36.7048 -36.6651 -36.6170  13.2014  13.2524  16.3667  16.9660
    17.5203  24.0666  26.4437  28.1355

     occupation numbers 
     1.0000   1.0000   1.0000   1.0000   1.0000   1.0000   1.0000   1.0624
     0.2394   0.0000   0.0000   0.0000

          k =-0.1250 0.8750-0.1250 (   790 PWs)   bands (ev):

   -70.4984 -36.6902 -36.6902 -36.6173  13.1758  13.1758  16.3675  17.3442
    17.3442  25.7676  25.7676  26.8227

     occupation numbers 
     1.0000   1.0000   1.0000   1.0000   1.0000   1.0000   1.0000   0.6816
     0.6816   0.0000   0.0000   0.0000

          k = 0.0000 0.0000 0.7500 (   795 PWs)   bands (ev):

   -70.5029 -36.6763 -36.6466 -36.6466  13.2225  13.3015  16.7346  16.7346
    17.2042  22.0713  29.1889  29.1889

     occupation numbers 
     1.0000   1.0000   1.0000   1.0000   1.0000   1.0000   1.0068   1.0068
     0.9904   0.0000   0.0000   0.0000

          k = 0.0000-0.0625 0.8125 (   791 PWs)   bands (ev):

   -70.4972 -36.6925 -36.6612 -36.6505  13.0963  13.1171  16.8779  16.9776
    17.4556  23.7164  27.6709  28.4287

     occupation numbers 
     1.0000   1.0000   1.0000   1.0000   1.0000   1.0000   1.0333   1.0662
     0.3819   0.0000   0.0000   0.0000

          k = 0.0000 0.8750-0.1250 (   794 PWs)   bands (ev):

   -70.4952 -36.7014 -36.6665 -36.6489  13.0357  13.0673  16.8905  17.0603
    17.5926  25.2577  26.0619  28.1574

     occupation numbers 
     1.0000   1.0000   1.0000   1.0000   1.0000   1.0000   1.0370   1.0833
     0.1261   0.0000   0.0000   0.0000

          k =-0.0625 0.9375-0.1250 (   795 PWs)   bands (ev):

   -70.4935 -36.6934 -36.6798 -36.6542  12.9878  12.9919  16.9653  17.3160
    17.5171  25.3642  27.0316  27.2987

     occupation numbers 
     1.0000   1.0000   1.0000   1.0000   1.0000   1.0000   1.0621   0.7568
     0.2457   0.0000   0.0000   0.0000

          k = 0.0000 0.0000 0.8750 (   792 PWs)   bands (ev):

   -70.4917 -36.6850 -36.6761 -36.6761  12.9247  12.9253  17.3057  17.3057
    17.4639  25.1511  27.6278  27.6278

     occupation numbers 
     1.0000   1.0000   1.0000   1.0000   1.0000   1.0000   0.7832   0.7832
     0.3617   0.0000   0.0000   0.0000

          k = 0.0000 0.9375-0.0625 (   788 PWs)   bands (ev):

   -70.4897 -36.6903 -36.6811 -36.6769  12.8597  12.8625  17.3716  17.4232
    17.5654  26.4853  26.7241  27.3394

     occupation numbers 
     1.0000   1.0000   1.0000   1.0000   1.0000   1.0000   0.6061   0.4649
     0.1630   0.0000   0.0000   0.0000

          k = 0.0000 0.0000-1.0000 (   784 PWs)   bands (ev):

   -70.4878 -36.6864 -36.6864 -36.6864  12.7945  12.7945  17.5557  17.5557
    17.5557  27.0439  27.0439  27.0439

     occupation numbers 
     1.0000   1.0000   1.0000   1.0000   1.0000   1.0000   0.1778   0.1778
     0.1778   0.0000   0.0000   0.0000

 ------ SPIN DOWN ----------


          k = 0.0000 0.0000 0.0000 (   791 PWs)   bands (ev):

   -67.9519 -33.8182 -33.8182 -33.8182   9.2919  17.1443  17.1443  17.1443
    19.1715  19.1715  41.3803  41.3803

     occupation numbers 
     1.0000   1.0000   1.0000   1.0000   1.0000   1.0560   1.0560   1.0560
     0.0000   0.0000   0.0000   0.0000

          k = 0.0000-0.0625 0.0625 (   779 PWs)   bands (ev):

   -67.9490 -33.8334 -33.8229 -33.8178   9.4507  17.0934  17.1353  17.2353
    19.1152  19.1754  40.5542  41.2146

     occupation numbers 
     1.0000   1.0000   1.0000   1.0000   1.0000   1.0800   1.0623   0.9389
     0.0000   0.0000   0.0000   0.0000

          k = 0.0000-0.1250 0.1250 (   788 PWs)   bands (ev):

   -67.9412 -33.8786 -33.8377 -33.8180   9.9169  16.9495  17.0918  17.4993
    18.9827  19.1872  38.5882  40.5619

     occupation numbers 
     1.0000   1.0000   1.0000   1.0000   1.0000   1.0567   1.0804   0.2818
     0.0000   0.0000   0.0000   0.0000

          k = 0.0000-0.1875 0.1875 (   782 PWs)   bands (ev):

   -67.9292 -33.9442 -33.8598 -33.8179  10.6576  16.7397  16.9867  17.9131
    18.8640  19.2130  36.0870  39.4189

     occupation numbers 
     1.0000   1.0000   1.0000   1.0000   1.0000   1.0073   1.0691   0.0015
     0.0000   0.0000   0.0000   0.0000

          k = 0.0000-0.2500 0.2500 (   784 PWs)   bands (ev):

   -67.9153 -34.0219 -33.8854 -33.8182  11.6029  16.5006  16.8409  18.4340
    18.8286  19.2530  33.4028  38.1293

     occupation numbers 
     1.0000   1.0000   1.0000   1.0000   1.0000   1.0001   1.0235   0.0000
     0.0000   0.0000   0.0000   0.0000

          k = 0.0000-0.3125 0.3125 (   790 PWs)   bands (ev):

   -67.9014 -34.0992 -33.9113 -33.8183  12.6117  16.2694  16.7895  18.8725
    18.9971  19.3047  30.7688  36.9593

     occupation numbers 
     1.0000   1.0000   1.0000   1.0000   1.0000   1.0000   1.0135   0.0000
     0.0000   0.0000   0.0000   0.0000

          k = 0.0000-0.3750 0.3750 (   802 PWs)   bands (ev):

   -67.8897 -34.1637 -33.9341 -33.8189  13.4325  16.0788  17.0497  18.9460
    19.3586  19.5160  28.3903  36.0469

     occupation numbers 
     1.0000   1.0000   1.0000   1.0000   1.0000   1.0000   1.0827   0.0000
     0.0000   0.0000   0.0000   0.0000

          k = 0.0000-0.4375 0.4375 (   794 PWs)   bands (ev):

   -67.8816 -34.2063 -33.9484 -33.8185  13.8579  15.9550  17.6399  19.0000
    19.4003  19.8894  26.5687  35.4702

     occupation numbers 
     1.0000   1.0000   1.0000   1.0000   1.0000   1.0000   0.0773   0.0000
     0.0000   0.0000   0.0000   0.0000

          k = 0.0000 0.5000-0.5000 (   798 PWs)   bands (ev):

   -67.8788 -34.2216 -33.9536 -33.8187  13.9671  15.9118  18.0018  19.0113
    19.4157  20.0262  25.8328  35.2730

     occupation numbers 
     1.0000   1.0000   1.0000   1.0000   1.0000   1.0000   0.0003   0.0000
     0.0000   0.0000   0.0000   0.0000

          k =-0.0625-0.0625 0.1250 (   782 PWs)   bands (ev):

   -67.9436 -33.8645 -33.8283 -33.8217   9.7634  17.0243  17.0695  17.4241
    19.0138  19.1896  39.4019  40.2590

     occupation numbers 
     1.0000   1.0000   1.0000   1.0000   1.0000   1.0790   1.0832   0.4626
     0.0000   0.0000   0.0000   0.0000

          k =-0.0625-0.1250 0.1875 (   785 PWs)   bands (ev):

   -67.9338 -33.9191 -33.8458 -33.8237  10.3683  16.8517  16.9808  17.7753
    18.8734  19.2214  37.3557  39.0730

     occupation numbers 
     1.0000   1.0000   1.0000   1.0000   1.0000   1.0261   1.0672   0.0139
     0.0000   0.0000   0.0000   0.0000

          k =-0.0625-0.1875 0.2500 (   787 PWs)   bands (ev):

   -67.9209 -33.9893 -33.8714 -33.8239  11.2175  16.6222  16.8436  18.2556
    18.7883  19.2659  34.7986  37.8907

     occupation numbers 
     1.0000   1.0000   1.0000   1.0000   1.0000   1.0013   1.0242   0.0000
     0.0000   0.0000   0.0000   0.0000

          k =-0.0625-0.2500 0.3125 (   792 PWs)   bands (ev):

   -67.9070 -34.0644 -33.8994 -33.8243  12.2131  16.3833  16.7123  18.7831
    18.8319  19.3202  32.1283  36.7753

     occupation numbers 
     1.0000   1.0000   1.0000   1.0000   1.0000   1.0000   1.0050   0.0000
     0.0000   0.0000   0.0000   0.0000

          k =-0.0625-0.3125 0.3750 (   793 PWs)   bands (ev):

   -67.8941 -34.1327 -33.9254 -33.8246  13.1607  16.1714  16.7604  18.8715
    19.3319  19.4440  29.5886  35.8298

     occupation numbers 
     1.0000   1.0000   1.0000   1.0000   1.0000   1.0000   1.0095   0.0000
     0.0000   0.0000   0.0000   0.0000

          k =-0.0625-0.3750 0.4375 (   796 PWs)   bands (ev):

   -67.8842 -34.1848 -33.9453 -33.8249  13.7879  16.0148  17.1490  18.9542
    19.4295  19.9259  27.4197  35.1438

     occupation numbers 
     1.0000   1.0000   1.0000   1.0000   1.0000   1.0000   1.0524   0.0000
     0.0000   0.0000   0.0000   0.0000

          k =-0.0625 0.5625-0.5000 (   792 PWs)   bands (ev):

   -67.8787 -34.2128 -33.9557 -33.8247  14.0295  15.9322  17.6253  18.9934
    19.4982  20.2703  26.0342  34.7827

     occupation numbers 
     1.0000   1.0000   1.0000   1.0000   1.0000   1.0000   0.0904   0.0000
     0.0000   0.0000   0.0000   0.0000

          k =-0.1250-0.1250 0.2500 (   783 PWs)   bands (ev):

   -67.9228 -33.9768 -33.8605 -33.8322  11.0861  16.7139  16.7833  18.2162
    18.7529  19.2867  35.8798  36.9794

     occupation numbers 
     1.0000   1.0000   1.0000   1.0000   1.0000   1.0051   1.0126   0.0000
     0.0000   0.0000   0.0000   0.0000

          k =-0.1250-0.1875 0.3125 (   786 PWs)   bands (ev):

   -67.9099 -34.0418 -33.8871 -33.8364  12.0045  16.4963  16.6029  18.7040
    18.7722  19.3633  33.6010  35.4845

     occupation numbers 
     1.0000   1.0000   1.0000   1.0000   1.0000   1.0001   1.0009   0.0000
     0.0000   0.0000   0.0000   0.0000

          k =-0.1250-0.2500 0.3750 (   792 PWs)   bands (ev):

   -67.8971 -34.1041 -33.9183 -33.8383  12.9903  16.2623  16.5073  18.7550
    19.2837  19.5472  31.0076  34.4558

     occupation numbers 
     1.0000   1.0000   1.0000   1.0000   1.0000   1.0000   1.0002   0.0000
     0.0000   0.0000   0.0000   0.0000

          k =-0.1250-0.3125 0.4375 (   792 PWs)   bands (ev):

   -67.8861 -34.1555 -33.9458 -33.8393  13.7969  16.0836  16.6240  18.8569
    19.4122  20.1466  28.5895  33.6772

     occupation numbers 
     1.0000   1.0000   1.0000   1.0000   1.0000   1.0000   1.0013   0.0000
     0.0000   0.0000   0.0000   0.0000

          k =-0.1250 0.6250-0.5000 (   785 PWs)   bands (ev):

   -67.8786 -34.1892 -33.9643 -33.8394  14.2044  15.9761  16.9742  18.9425
    19.4836  20.7878  26.6685  33.1743

     occupation numbers 
     1.0000   1.0000   1.0000   1.0000   1.0000   1.0000   1.0651   0.0000
     0.0000   0.0000   0.0000   0.0000

          k =-0.1250 0.5625-0.4375 (   791 PWs)   bands (ev):

   -67.8761 -34.2014 -33.9710 -33.8399  14.3024  15.9396  17.1786  18.9688
    19.5248  21.1265  25.8462  32.9984

     occupation numbers 
     1.0000   1.0000   1.0000   1.0000   1.0000   1.0000   1.0238   0.0000
     0.0000   0.0000   0.0000   0.0000

          k =-0.1875-0.1875 0.3750 (   793 PWs)   bands (ev):

   -67.8982 -34.0920 -33.9145 -33.8466  12.9323  16.3011  16.4135  18.6985
    19.2714  19.5957  32.3229  33.0519

     occupation numbers 
     1.0000   1.0000   1.0000   1.0000   1.0000   1.0000   1.0000   0.0000
     0.0000   0.0000   0.0000   0.0000

          k =-0.1875-0.2500 0.4375 (   787 PWs)   bands (ev):

   -67.8871 -34.1330 -33.9481 -33.8515  13.8321  16.0844  16.3600  18.7710
    19.3923  20.3003  30.0411  31.8757

     occupation numbers 
     1.0000   1.0000   1.0000   1.0000   1.0000   1.0000   1.0000   0.0000
     0.0000   0.0000   0.0000   0.0000

          k =-0.1875 0.6875-0.5000 (   785 PWs)   bands (ev):

   -67.8786 -34.1612 -33.9783 -33.8540  14.4384  15.9764  16.4595  18.8828
    19.4273  21.1792  27.7652  31.2152

     occupation numbers 
     1.0000   1.0000   1.0000   1.0000   1.0000   1.0000   1.0001   0.0000
     0.0000   0.0000   0.0000   0.0000

          k =-0.1875 0.6250-0.4375 (   788 PWs)   bands (ev):

   -67.8741 -34.1757 -33.9961 -33.8550  14.6541  15.9428  16.6502  18.9600
    19.4559  22.0093  26.1421  30.8684

     occupation numbers 
     1.0000   1.0000   1.0000   1.0000   1.0000   1.0000   1.0020   0.0000
     0.0000   0.0000   0.0000   0.0000

          k =-0.2500 0.7500-0.5000 (   784 PWs)   bands (ev):

   -67.8786 -34.1473 -33.9865 -33.8598  14.5710  15.9044  16.3070  18.8553
    19.4027  21.3146  29.0144  29.6552

     occupation numbers 
     1.0000   1.0000   1.0000   1.0000   1.0000   1.0000   1.0000   0.0000
     0.0000   0.0000   0.0000   0.0000

          k =-0.2500 0.6875-0.4375 (   779 PWs)   bands (ev):

   -67.8729 -34.1484 -34.0222 -33.8633  14.9964  15.8654  16.2921  18.9727
    19.3799  22.5137  27.0643  28.9370

     occupation numbers 
     1.0000   1.0000   1.0000   1.0000   1.0000   1.0000   1.0000   0.0000
     0.0000   0.0000   0.0000   0.0000

          k =-0.2500 0.6250-0.3750 (   782 PWs)   bands (ev):

   -67.8709 -34.1460 -34.0381 -33.8646  15.0946  15.9040  16.2898  19.0341
    19.3616  23.3483  25.9015  28.7491

     occupation numbers 
     1.0000   1.0000   1.0000   1.0000   1.0000   1.0000   1.0000   0.0000
     0.0000   0.0000   0.0000   0.0000

          k =-0.3125 0.6875-0.3750 (   786 PWs)   bands (ev):

   -67.8699 -34.1203 -34.0688 -33.8679  15.3527  15.8601  16.0863  19.1082
    19.2792  24.0787  26.0108  27.5620

     occupation numbers 
     1.0000   1.0000   1.0000   1.0000   1.0000   1.0000   1.0000   0.0000
     0.0000   0.0000   0.0000   0.0000

          k = 0.0000 0.0000 0.1250 (   783 PWs)   bands (ev):

   -67.9463 -33.8384 -33.8284 -33.8284   9.6081  17.1320  17.1320  17.2375
    18.9907  19.2391  39.9555  41.2009

     occupation numbers 
     1.0000   1.0000   1.0000   1.0000   1.0000   1.0643   1.0643   0.9347
     0.0000   0.0000   0.0000   0.0000

          k = 0.0000-0.0625 0.1875 (   782 PWs)   bands (ev):

   -67.9384 -33.8793 -33.8430 -33.8310  10.0702  17.0205  17.1054  17.4749
    18.7952  19.2944  38.4558  40.4194

     occupation numbers 
     1.0000   1.0000   1.0000   1.0000   1.0000   1.0782   1.0767   0.3357
     0.0000   0.0000   0.0000   0.0000

          k = 0.0000-0.1250 0.2500 (   789 PWs)   bands (ev):

   -67.9268 -33.9445 -33.8652 -33.8313  10.8038  16.8198  17.0143  17.8874
    18.6342  19.3419  36.1608  39.1256

     occupation numbers 
     1.0000   1.0000   1.0000   1.0000   1.0000   1.0189   1.0768   0.0023
     0.0000   0.0000   0.0000   0.0000

          k = 0.0000-0.1875 0.3125 (   786 PWs)   bands (ev):

   -67.9129 -34.0208 -33.8912 -33.8305  11.7392  16.5881  16.8581  18.4099
    18.5957  19.3921  33.5117  37.8742

     occupation numbers 
     1.0000   1.0000   1.0000   1.0000   1.0000   1.0007   1.0278   0.0000
     0.0000   0.0000   0.0000   0.0000

          k = 0.0000-0.2500 0.3750 (   786 PWs)   bands (ev):

   -67.8990 -34.0964 -33.9171 -33.8301  12.7373  16.3634  16.7573  18.6773
    18.9767  19.4552  30.8715  36.7849

     occupation numbers 
     1.0000   1.0000   1.0000   1.0000   1.0000   1.0000   1.0091   0.0000
     0.0000   0.0000   0.0000   0.0000

          k = 0.0000-0.3125 0.4375 (   790 PWs)   bands (ev):

   -67.8873 -34.1600 -33.9394 -33.8298  13.5517  16.1784  16.9096  18.8046
    19.4999  19.5708  28.4708  35.9401

     occupation numbers 
     1.0000   1.0000   1.0000   1.0000   1.0000   1.0000   1.0431   0.0000
     0.0000   0.0000   0.0000   0.0000

          k = 0.0000-0.3750 0.5000 (   794 PWs)   bands (ev):

   -67.8795 -34.2024 -33.9543 -33.8297  13.9750  16.0573  17.3146  18.8813
    19.8027  19.8765  26.6072  35.4057

     occupation numbers 
     1.0000   1.0000   1.0000   1.0000   1.0000   1.0000   0.7603   0.0000
     0.0000   0.0000   0.0000   0.0000

          k = 0.0000 0.5625-0.4375 (   794 PWs)   bands (ev):

   -67.8767 -34.2175 -33.9593 -33.8294  14.0828  16.0154  17.5452  18.8920
    19.9788  20.0150  25.8384  35.2230

     occupation numbers 
     1.0000   1.0000   1.0000   1.0000   1.0000   1.0000   0.1947   0.0000
     0.0000   0.0000   0.0000   0.0000

          k =-0.0625-0.0625 0.2500 (   784 PWs)   bands (ev):

   -67.9288 -33.9245 -33.8586 -33.8420  10.6632  16.9574  17.0257  17.7552
    18.5616  19.3761  37.1128  38.6412

     occupation numbers 
     1.0000   1.0000   1.0000   1.0000   1.0000   1.0594   1.0793   0.0184
     0.0000   0.0000   0.0000   0.0000

          k =-0.0625-0.1250 0.3125 (   786 PWs)   bands (ev):

   -67.9162 -33.9901 -33.8831 -33.8450  11.4936  16.7744  16.8892  18.2184
    18.4271  19.4477  34.9663  36.9903

     occupation numbers 
     1.0000   1.0000   1.0000   1.0000   1.0000   1.0113   1.0366   0.0000
     0.0000   0.0000   0.0000   0.0000

          k =-0.0625-0.1875 0.3750 (   792 PWs)   bands (ev):

   -67.9025 -34.0618 -33.9116 -33.8453  12.4652  16.5443  16.7244  18.4527
    18.7756  19.5297  32.3400  35.8425

     occupation numbers 
     1.0000   1.0000   1.0000   1.0000   1.0000   1.0003   1.0059   0.0000
     0.0000   0.0000   0.0000   0.0000

          k =-0.0625-0.2500 0.4375 (   788 PWs)   bands (ev):

   -67.8897 -34.1275 -33.9379 -33.8447  13.3922  16.3387  16.6583  18.5957
    19.2846  19.7233  29.7765  34.9362

     occupation numbers 
     1.0000   1.0000   1.0000   1.0000   1.0000   1.0000   1.0023   0.0000
     0.0000   0.0000   0.0000   0.0000

          k =-0.0625-0.3125 0.5000 (   786 PWs)   bands (ev):

   -67.8799 -34.1774 -33.9579 -33.8442  14.0129  16.1974  16.8246  18.7336
    19.5789  20.2075  27.5480  34.2738

     occupation numbers 
     1.0000   1.0000   1.0000   1.0000   1.0000   1.0000   1.0199   0.0000
     0.0000   0.0000   0.0000   0.0000

          k =-0.0625 0.6250-0.4375 (   790 PWs)   bands (ev):

   -67.8747 -34.2046 -33.9690 -33.8441  14.2519  16.1244  17.0755  18.7811
    19.7723  20.7175  26.0699  33.9171

     occupation numbers 
     1.0000   1.0000   1.0000   1.0000   1.0000   1.0000   1.0828   0.0000
     0.0000   0.0000   0.0000   0.0000

          k =-0.1250 0.1250 0.1250 (   791 PWs)   bands (ev):

   -67.9364 -33.9126 -33.8292 -33.8292  10.2198  16.9013  16.9013  17.7646
    19.0716  19.0716  38.4019  38.4019

     occupation numbers 
     1.0000   1.0000   1.0000   1.0000   1.0000   1.0404   1.0404   0.0162
     0.0000   0.0000   0.0000   0.0000

          k =-0.1250-0.1250 0.3750 (   780 PWs)   bands (ev):

   -67.9035 -34.0461 -33.9083 -33.8541  12.3716  16.6213  16.7123  18.3458
    18.7209  19.5615  33.6373  34.4809

     occupation numbers 
     1.0000   1.0000   1.0000   1.0000   1.0000   1.0013   1.0050   0.0000
     0.0000   0.0000   0.0000   0.0000

          k =-0.1250-0.1875 0.4375 (   788 PWs)   bands (ev):

   -67.8911 -34.1018 -33.9399 -33.8582  13.3120  16.3523  16.6190  18.4190
    19.1962  19.8239  31.2993  33.1560

     occupation numbers 
     1.0000   1.0000   1.0000   1.0000   1.0000   1.0000   1.0012   0.0000
     0.0000   0.0000   0.0000   0.0000

          k =-0.1250-0.2500 0.5000 (   788 PWs)   bands (ev):

   -67.8804 -34.1482 -33.9686 -33.8593  14.0964  16.1893  16.5650  18.5797
    19.4121  20.4739  28.8426  32.3563

     occupation numbers 
     1.0000   1.0000   1.0000   1.0000   1.0000   1.0000   1.0005   0.0000
     0.0000   0.0000   0.0000   0.0000

          k =-0.1250 0.6875-0.4375 (   788 PWs)   bands (ev):

   -67.8733 -34.1787 -33.9885 -33.8598  14.5086  16.1656  16.6071  18.7024
    19.5530  21.3187  26.8110  31.8413

     occupation numbers 
     1.0000   1.0000   1.0000   1.0000   1.0000   1.0000   1.0010   0.0000
     0.0000   0.0000   0.0000   0.0000

          k =-0.1250 0.6250-0.3750 (   795 PWs)   bands (ev):

   -67.8709 -34.1899 -33.9956 -33.8600  14.6072  16.1699  16.6638  18.7353
    19.6269  21.8291  25.8774  31.6599

     occupation numbers 
     1.0000   1.0000   1.0000   1.0000   1.0000   1.0000   1.0025   0.0000
     0.0000   0.0000   0.0000   0.0000

          k =-0.1875 0.1875 0.1250 (   791 PWs)   bands (ev):

   -67.9253 -33.9737 -33.8500 -33.8298  10.9464  16.6713  16.7551  18.2259
    18.9596  19.1467  36.1057  37.3106

     occupation numbers 
     1.0000   1.0000   1.0000   1.0000   1.0000   1.0028   1.0089   0.0000
     0.0000   0.0000   0.0000   0.0000

          k =-0.1875-0.1875 0.5000 (   786 PWs)   bands (ev):

   -67.8805 -34.1336 -33.9757 -33.8653  14.1423  16.0856  16.5716  18.5087
    19.3570  20.5661  30.2201  30.7449

     occupation numbers 
     1.0000   1.0000   1.0000   1.0000   1.0000   1.0000   1.0005   0.0000
     0.0000   0.0000   0.0000   0.0000

          k =-0.1875 0.7500-0.4375 (   784 PWs)   bands (ev):

   -67.8724 -34.1533 -34.0100 -33.8684  14.7596  15.9559  16.4830  18.6728
    19.4034  21.6260  28.0566  29.8860

     occupation numbers 
     1.0000   1.0000   1.0000   1.0000   1.0000   1.0000   1.0001   0.0000
     0.0000   0.0000   0.0000   0.0000

          k =-0.1875 0.6875-0.3750 (   785 PWs)   bands (ev):

   -67.8680 -34.1620 -34.0313 -33.8694  15.0101  16.0637  16.3337  18.7911
    19.4403  22.7411  26.2565  29.5225

     occupation numbers 
     1.0000   1.0000   1.0000   1.0000   1.0000   1.0000   1.0000   0.0000
     0.0000   0.0000   0.0000   0.0000

          k =-0.2500 0.2500 0.1250 (   794 PWs)   bands (ev):

   -67.9123 -34.0409 -33.8789 -33.8310  11.8773  16.4238  16.5899  18.7874
    18.9142  19.2243  33.5238  36.2467

     occupation numbers 
     1.0000   1.0000   1.0000   1.0000   1.0000   1.0000   1.0007   0.0000
     0.0000   0.0000   0.0000   0.0000

          k =-0.2500 0.1875 0.1875 (   788 PWs)   bands (ev):

   -67.9140 -34.0323 -33.8632 -33.8412  11.7619  16.4733  16.5032  18.7897
    18.9576  19.1910  34.6852  35.3915

     occupation numbers 
     1.0000   1.0000   1.0000   1.0000   1.0000   1.0001   1.0001   0.0000
     0.0000   0.0000   0.0000   0.0000

          k =-0.2500 0.7500-0.3750 (   788 PWs)   bands (ev):

   -67.8672 -34.1432 -34.0537 -33.8726  15.2893  15.8154  16.2854  18.8582
    19.3289  23.0658  27.0671  28.0999

     occupation numbers 
     1.0000   1.0000   1.0000   1.0000   1.0000   1.0000   1.0000   0.0000
     0.0000   0.0000   0.0000   0.0000

          k =-0.2500 0.6875-0.3125 (   782 PWs)   bands (ev):

   -67.8652 -34.1301 -34.0783 -33.8735  15.4843  15.9597  16.0028  18.9859
    19.2566  24.2489  25.7968  27.7274

     occupation numbers 
     1.0000   1.0000   1.0000   1.0000   1.0000   1.0000   1.0000   0.0000
     0.0000   0.0000   0.0000   0.0000

          k =-0.3125 0.3125 0.1250 (   796 PWs)   bands (ev):

   -67.8993 -34.1054 -33.9100 -33.8318  12.8763  16.1951  16.5059  18.9382
    19.2984  19.4112  30.9091  35.3029

     occupation numbers 
     1.0000   1.0000   1.0000   1.0000   1.0000   1.0000   1.0002   0.0000
     0.0000   0.0000   0.0000   0.0000

          k =-0.3125 0.2500 0.1875 (   790 PWs)   bands (ev):

   -67.9019 -34.0879 -33.8930 -33.8462  12.7267  16.2379  16.3217  18.9556
    19.2695  19.4570  32.3821  34.1390

     occupation numbers 
     1.0000   1.0000   1.0000   1.0000   1.0000   1.0000   1.0000   0.0000
     0.0000   0.0000   0.0000   0.0000

          k =-0.3750 0.3750 0.1250 (   788 PWs)   bands (ev):

   -67.8880 -34.1581 -33.9371 -33.8323  13.6887  16.0128  16.6904  18.9980
    19.3623  20.0413  28.5071  34.5609

     occupation numbers 
     1.0000   1.0000   1.0000   1.0000   1.0000   1.0000   1.0037   0.0000
     0.0000   0.0000   0.0000   0.0000

          k =-0.3750 0.3125 0.1875 (   789 PWs)   bands (ev):

   -67.8906 -34.1339 -33.9273 -33.8488  13.6559  16.0331  16.2916  19.0006
    19.3498  20.1740  29.8668  33.2748

     occupation numbers 
     1.0000   1.0000   1.0000   1.0000   1.0000   1.0000   1.0000   0.0000
     0.0000   0.0000   0.0000   0.0000

          k =-0.3750 0.2500 0.2500 (   790 PWs)   bands (ev):

   -67.8916 -34.1240 -33.9211 -33.8588  13.6522  16.0450  16.1402  18.9891
    19.3496  20.2307  31.1932  31.8492

     occupation numbers 
     1.0000   1.0000   1.0000   1.0000   1.0000   1.0000   1.0000   0.0000
     0.0000   0.0000   0.0000   0.0000

          k = 0.5625-0.5625 0.1250 (   792 PWs)   bands (ev):

   -67.8806 -34.1933 -33.9557 -33.8331  14.0950  15.8955  17.1559  19.0491
    19.4063  20.6063  26.6254  34.0865

     occupation numbers 
     1.0000   1.0000   1.0000   1.0000   1.0000   1.0000   1.0467   0.0000
     0.0000   0.0000   0.0000   0.0000

          k = 0.5625-0.6250 0.1875 (   789 PWs)   bands (ev):

   -67.8820 -34.1664 -33.9565 -33.8504  14.2563  15.8930  16.5498  19.0634
    19.4027  20.9351  27.6250  32.6657

     occupation numbers 
     1.0000   1.0000   1.0000   1.0000   1.0000   1.0000   1.0004   0.0000
     0.0000   0.0000   0.0000   0.0000

          k = 0.5625-0.6875 0.2500 (   783 PWs)   bands (ev):

   -67.8827 -34.1455 -33.9574 -33.8652  14.4257  15.8871  16.1427  19.0529
    19.3985  21.1281  28.9967  30.8374

     occupation numbers 
     1.0000   1.0000   1.0000   1.0000   1.0000   1.0000   1.0000   0.0000
     0.0000   0.0000   0.0000   0.0000

          k = 0.5000-0.5000 0.1250 (   792 PWs)   bands (ev):

   -67.8780 -34.2057 -33.9622 -33.8329  14.1930  15.8554  17.4269  19.0670
    19.4225  20.8831  25.8388  33.9233

     occupation numbers 
     1.0000   1.0000   1.0000   1.0000   1.0000   1.0000   0.4553   0.0000
     0.0000   0.0000   0.0000   0.0000

          k = 0.5000-0.5625 0.1875 (   787 PWs)   bands (ev):

   -67.8773 -34.1829 -33.9731 -33.8512  14.4604  15.8219  16.9054  19.1056
    19.4323  21.5958  26.0975  32.3446

     occupation numbers 
     1.0000   1.0000   1.0000   1.0000   1.0000   1.0000   1.0417   0.0000
     0.0000   0.0000   0.0000   0.0000

          k = 0.5000-0.6250 0.2500 (   786 PWs)   bands (ev):

   -67.8769 -34.1546 -33.9884 -33.8687  14.7879  15.8098  16.3693  19.1231
    19.4173  22.1210  26.9321  30.3379

     occupation numbers 
     1.0000   1.0000   1.0000   1.0000   1.0000   1.0000   1.0000   0.0000
     0.0000   0.0000   0.0000   0.0000

          k = 0.5000-0.6875 0.3125 (   779 PWs)   bands (ev):

   -67.8766 -34.1399 -33.9973 -33.8754  14.9870  15.7950  16.1075  19.1286
    19.4052  22.2996  28.0280  28.8252

     occupation numbers 
     1.0000   1.0000   1.0000   1.0000   1.0000   1.0000   1.0000   0.0000
     0.0000   0.0000   0.0000   0.0000

          k = 0.4375-0.5625 0.2500 (   790 PWs)   bands (ev):

   -67.8749 -34.1566 -34.0010 -33.8697  14.8561  15.7864  16.5259  19.1548
    19.4210  22.7453  25.9155  30.1676

     occupation numbers 
     1.0000   1.0000   1.0000   1.0000   1.0000   1.0000   1.0002   0.0000
     0.0000   0.0000   0.0000   0.0000

          k = 0.4375-0.6250 0.3125 (   790 PWs)   bands (ev):

   -67.8736 -34.1250 -34.0328 -33.8804  15.1926  15.7957  16.1612  19.2041
    19.3788  23.5859  26.3244  28.2673

     occupation numbers 
     1.0000   1.0000   1.0000   1.0000   1.0000   1.0000   1.0000   0.0000
     0.0000   0.0000   0.0000   0.0000

          k = 0.3750-0.6250 0.3750 (   778 PWs)   bands (ev):

   -67.8722 -34.0811 -34.0811 -33.8837  15.3435  15.9357  15.9357  19.2989
    19.2989  25.1959  25.1959  27.3689

     occupation numbers 
     1.0000   1.0000   1.0000   1.0000   1.0000   1.0000   1.0000   0.0000
     0.0000   0.0000   0.0000   0.0000

          k = 0.0000 0.0000 0.2500 (   787 PWs)   bands (ev):

   -67.9309 -33.8932 -33.8582 -33.8582  10.5196  17.1304  17.1304  17.5053
    18.4751  19.4124  37.8788  39.8884

     occupation numbers 
     1.0000   1.0000   1.0000   1.0000   1.0000   1.0652   1.0652   0.2692
     0.0000   0.0000   0.0000   0.0000

          k = 0.0000-0.0625 0.3125 (   781 PWs)   bands (ev):

   -67.9194 -33.9462 -33.8803 -33.8657  11.2305  17.0321  17.1008  17.8387
    18.1959  19.5051  36.3362  38.4405

     occupation numbers 
     1.0000   1.0000   1.0000   1.0000   1.0000   1.0805   1.0781   0.0053
     0.0000   0.0000   0.0000   0.0000

          k = 0.0000-0.1250 0.3750 (   786 PWs)   bands (ev):

   -67.9060 -34.0177 -33.9069 -33.8656  12.1325  16.8381  16.9182  18.1397
    18.3500  19.5913  33.8357  37.2686

     occupation numbers 
     1.0000   1.0000   1.0000   1.0000   1.0000   1.0229   1.0460   0.0000
     0.0000   0.0000   0.0000   0.0000

          k = 0.0000-0.1875 0.4375 (   785 PWs)   bands (ev):

   -67.8925 -34.0895 -33.9333 -33.8640  13.0917  16.6373  16.6795  18.2976
    18.9211  19.7225  31.1781  36.3671

     occupation numbers 
     1.0000   1.0000   1.0000   1.0000   1.0000   1.0016   1.0031   0.0000
     0.0000   0.0000   0.0000   0.0000

          k = 0.0000-0.2500 0.5000 (   789 PWs)   bands (ev):

   -67.8811 -34.1503 -33.9559 -33.8627  13.8808  16.4689  16.5976  18.4945
    19.4542  20.0315  28.7157  35.6355

     occupation numbers 
     1.0000   1.0000   1.0000   1.0000   1.0000   1.0001   1.0008   0.0000
     0.0000   0.0000   0.0000   0.0000

          k = 0.0000-0.3125 0.5625 (   789 PWs)   bands (ev):

   -67.8735 -34.1905 -33.9710 -33.8615  14.2962  16.3580  16.7269  18.5821
    19.8406  20.6135  26.7331  34.9925

     occupation numbers 
     1.0000   1.0000   1.0000   1.0000   1.0000   1.0000   1.0061   0.0000
     0.0000   0.0000   0.0000   0.0000

          k = 0.0000 0.6250-0.3750 (   798 PWs)   bands (ev):

   -67.8709 -34.2052 -33.9762 -33.8617  14.4004  16.3193  16.8286  18.5898
    19.9831  21.0111  25.8620  34.7628

     occupation numbers 
     1.0000   1.0000   1.0000   1.0000   1.0000   1.0000   1.0208   0.0000
     0.0000   0.0000   0.0000   0.0000

          k =-0.0625-0.0625 0.3750 (   783 PWs)   bands (ev):

   -67.9073 -33.9953 -33.9047 -33.8800  12.0189  16.9797  17.0263  17.9632
    18.1889  19.6171  35.0879  36.1125

     occupation numbers 
     1.0000   1.0000   1.0000   1.0000   1.0000   1.0669   1.0794   0.0006
     0.0000   0.0000   0.0000   0.0000

          k =-0.0625-0.1250 0.4375 (   793 PWs)   bands (ev):

   -67.8942 -34.0583 -33.9339 -33.8833  12.9321  16.6823  16.9117  18.0225
    18.7057  19.7643  32.7520  34.6563

     occupation numbers 
     1.0000   1.0000   1.0000   1.0000   1.0000   1.0033   1.0438   0.0002
     0.0000   0.0000   0.0000   0.0000

          k =-0.0625-0.1875 0.5000 (   789 PWs)   bands (ev):

   -67.8819 -34.1179 -33.9608 -33.8828  13.8024  16.4041  16.7631  18.2459
    19.2060  20.1065  30.1511  33.7308

     occupation numbers 
     1.0000   1.0000   1.0000   1.0000   1.0000   1.0000   1.0098   0.0000
     0.0000   0.0000   0.0000   0.0000

          k =-0.0625-0.2500 0.5625 (   788 PWs)   bands (ev):

   -67.8725 -34.1640 -33.9817 -33.8817  14.4013  16.3159  16.6316  18.4211
    19.5814  20.8109  27.8189  33.0487

     occupation numbers 
     1.0000   1.0000   1.0000   1.0000   1.0000   1.0000   1.0015   0.0000
     0.0000   0.0000   0.0000   0.0000

          k =-0.0625 0.6875-0.3750 (   791 PWs)   bands (ev):

   -67.8675 -34.1893 -33.9931 -33.8809  14.6356  16.4099  16.5254  18.4728
    19.8188  21.6313  26.1616  32.6737

     occupation numbers 
     1.0000   1.0000   1.0000   1.0000   1.0000   1.0000   1.0002   0.0000
     0.0000   0.0000   0.0000   0.0000

          k =-0.1250-0.1250 0.5000 (   790 PWs)   bands (ev):

   -67.8822 -34.1014 -33.9668 -33.8909  13.7761  16.3388  16.9039  18.1144
    19.1112  20.1457  31.6117  32.0881

     occupation numbers 
     1.0000   1.0000   1.0000   1.0000   1.0000   1.0000   1.0413   0.0000
     0.0000   0.0000   0.0000   0.0000

          k =-0.1250-0.1875 0.5625 (   783 PWs)   bands (ev):

   -67.8719 -34.1383 -33.9983 -33.8926  14.4986  16.0708  16.7945  18.3359
    19.3614  20.9511  29.2683  31.0923

     occupation numbers 
     1.0000   1.0000   1.0000   1.0000   1.0000   1.0000   1.0143   0.0000
     0.0000   0.0000   0.0000   0.0000

          k =-0.1250 0.7500-0.3750 (   784 PWs)   bands (ev):

   -67.8651 -34.1631 -34.0209 -33.8926  14.9160  16.0298  16.6160  18.5044
    19.5460  22.0709  27.0871  30.5546

     occupation numbers 
     1.0000   1.0000   1.0000   1.0000   1.0000   1.0000   1.0011   0.0000
     0.0000   0.0000   0.0000   0.0000

          k =-0.1250 0.6875-0.3125 (   786 PWs)   bands (ev):

   -67.8628 -34.1719 -34.0289 -33.8925  15.0162  16.1267  16.4820  18.5530
    19.6334  22.8377  25.9591  30.3642

     occupation numbers 
     1.0000   1.0000   1.0000   1.0000   1.0000   1.0000   1.0001   0.0000
     0.0000   0.0000   0.0000   0.0000

          k =-0.1875 0.8125-0.3750 (   787 PWs)   bands (ev):

   -67.8644 -34.1469 -34.0390 -33.8960  15.0874  15.8200  16.6415  18.5746
    19.3931  22.2091  28.3110  28.9414

     occupation numbers 
     1.0000   1.0000   1.0000   1.0000   1.0000   1.0000   1.0017   0.0000
     0.0000   0.0000   0.0000   0.0000

          k =-0.1875 0.7500-0.3125 (   782 PWs)   bands (ev):

   -67.8602 -34.1452 -34.0674 -33.8969  15.4020  15.8222  16.3774  18.7836
    19.3864  23.6524  26.4671  28.3802

     occupation numbers 
     1.0000   1.0000   1.0000   1.0000   1.0000   1.0000   1.0000   0.0000
     0.0000   0.0000   0.0000   0.0000

          k =-0.2500 0.2500 0.2500 (   784 PWs)   bands (ev):

   -67.9035 -34.0822 -33.8663 -33.8663  12.6351  16.2407  16.2407  19.1337
    19.1337  19.4613  33.6242  33.6242

     occupation numbers 
     1.0000   1.0000   1.0000   1.0000   1.0000   1.0000   1.0000   0.0000
     0.0000   0.0000   0.0000   0.0000

          k =-0.2500 0.7500-0.2500 (   787 PWs)   bands (ev):

   -67.8585 -34.1118 -34.1118 -33.8980  15.7344  15.7344  16.1248  19.1173
    19.1173  25.3566  25.3566  27.3729

     occupation numbers 
     1.0000   1.0000   1.0000   1.0000   1.0000   1.0000   1.0000   0.0000
     0.0000   0.0000   0.0000   0.0000

          k =-0.3125 0.3125 0.2500 (   790 PWs)   bands (ev):

   -67.8932 -34.1210 -33.9027 -33.8700  13.5886  16.0223  16.0679  19.1295
    19.2691  20.2206  31.3340  32.7431

     occupation numbers 
     1.0000   1.0000   1.0000   1.0000   1.0000   1.0000   1.0000   0.0000
     0.0000   0.0000   0.0000   0.0000

          k = 0.6250-0.6250 0.2500 (   787 PWs)   bands (ev):

   -67.8842 -34.1455 -33.9413 -33.8728  14.3731  15.8614  16.1010  19.1612
    19.3639  21.0685  28.9267  32.0798

     occupation numbers 
     1.0000   1.0000   1.0000   1.0000   1.0000   1.0000   1.0000   0.0000
     0.0000   0.0000   0.0000   0.0000

          k = 0.6250-0.6875 0.3125 (   796 PWs)   bands (ev):

   -67.8852 -34.1376 -33.9283 -33.8901  14.4453  15.8580  15.9000  19.2052
    19.3378  21.1214  30.2786  30.8327

     occupation numbers 
     1.0000   1.0000   1.0000   1.0000   1.0000   1.0000   1.0000   0.0000
     0.0000   0.0000   0.0000   0.0000

          k = 0.5625-0.5625 0.2500 (   787 PWs)   bands (ev):

   -67.8783 -34.1569 -33.9723 -33.8746  14.7168  15.7634  16.4197  19.1973
    19.4200  21.9787  26.8859  31.6665

     occupation numbers 
     1.0000   1.0000   1.0000   1.0000   1.0000   1.0000   1.0000   0.0000
     0.0000   0.0000   0.0000   0.0000

          k = 0.5625-0.6250 0.3125 (   788 PWs)   bands (ev):

   -67.8788 -34.1374 -33.9672 -33.8974  14.9992  15.7505  15.9745  19.2520
    19.4044  22.1775  28.1787  30.0301

     occupation numbers 
     1.0000   1.0000   1.0000   1.0000   1.0000   1.0000   1.0000   0.0000
     0.0000   0.0000   0.0000   0.0000

          k = 0.5000-0.5000 0.2500 (   798 PWs)   bands (ev):

   -67.8764 -34.1607 -33.9845 -33.8753  14.7772  15.7306  16.6203  19.2122
    19.4384  22.5304  25.9172  31.5259

     occupation numbers 
     1.0000   1.0000   1.0000   1.0000   1.0000   1.0000   1.0012   0.0000
     0.0000   0.0000   0.0000   0.0000

          k = 0.5000-0.5625 0.3125 (   789 PWs)   bands (ev):

   -67.8755 -34.1297 -33.9977 -33.9002  15.1231  15.6994  16.2335  19.2845
    19.4352  23.2788  26.3723  29.7097

     occupation numbers 
     1.0000   1.0000   1.0000   1.0000   1.0000   1.0000   1.0000   0.0000
     0.0000   0.0000   0.0000   0.0000

          k = 0.5000-0.6250 0.3750 (   789 PWs)   bands (ev):

   -67.8753 -34.1127 -34.0070 -33.9110  15.3260  15.7422  15.9582  19.3180
    19.4219  23.5267  27.2941  28.2306

     occupation numbers 
     1.0000   1.0000   1.0000   1.0000   1.0000   1.0000   1.0000   0.0000
     0.0000   0.0000   0.0000   0.0000

          k = 0.4375-0.5625 0.3750 (   787 PWs)   bands (ev):

   -67.8739 -34.0901 -34.0356 -33.9146  15.3746  15.7598  16.0059  19.3535
    19.4154  24.6763  26.0399  27.8646

     occupation numbers 
     1.0000   1.0000   1.0000   1.0000   1.0000   1.0000   1.0000   0.0000
     0.0000   0.0000   0.0000   0.0000

          k = 0.0000 0.0000 0.3750 (   779 PWs)   bands (ev):

   -67.9085 -33.9631 -33.9032 -33.9032  11.8988  17.2255  17.2255  17.7087
    17.9134  19.6413  36.2505  37.3911

     occupation numbers 
     1.0000   1.0000   1.0000   1.0000   1.0000   0.9564   0.9564   0.0342
     0.0015   0.0000   0.0000   0.0000

          k = 0.0000-0.0625 0.4375 (   788 PWs)   bands (ev):

   -67.8958 -34.0161 -33.9305 -33.9149  12.7329  17.0137  17.1960  17.6336
    18.3009  19.7828  34.3472  36.0711

     occupation numbers 
     1.0000   1.0000   1.0000   1.0000   1.0000   1.0767   1.0019   0.0827
     0.0000   0.0000   0.0000   0.0000

          k = 0.0000-0.1250 0.5000 (   792 PWs)   bands (ev):

   -67.8829 -34.0799 -33.9579 -33.9144  13.6030  16.5675  17.0622  17.9219
    18.8490  20.0318  31.6691  34.8811

     occupation numbers 
     1.0000   1.0000   1.0000   1.0000   1.0000   1.0005   1.0833   0.0013
     0.0000   0.0000   0.0000   0.0000

          k = 0.0000-0.1875 0.5625 (   786 PWs)   bands (ev):

   -67.8719 -34.1357 -33.9804 -33.9115  14.3206  16.2571  16.9301  18.1704
    19.3881  20.5911  29.1250  33.9016

     occupation numbers 
     1.0000   1.0000   1.0000   1.0000   1.0000   1.0000   1.0500   0.0000
     0.0000   0.0000   0.0000   0.0000

          k = 0.0000-0.2500 0.6250 (   782 PWs)   bands (ev):

   -67.8645 -34.1730 -33.9957 -33.9090  14.7141  16.1611  16.8388  18.2629
    19.7872  21.5291  26.9746  33.2406

     occupation numbers 
     1.0000   1.0000   1.0000   1.0000   1.0000   1.0000   1.0230   0.0000
     0.0000   0.0000   0.0000   0.0000

          k = 0.0000 0.6875-0.3125 (   794 PWs)   bands (ev):

   -67.8621 -34.1870 -34.0014 -33.9085  14.8124  16.1714  16.8064  18.2714
    19.9355  22.1822  25.9249  33.0047

     occupation numbers 
     1.0000   1.0000   1.0000   1.0000   1.0000   1.0000   1.0164   0.0000
     0.0000   0.0000   0.0000   0.0000

          k =-0.0625-0.0625 0.5000 (   785 PWs)   bands (ev):

   -67.8832 -34.0579 -33.9605 -33.9297  13.5326  16.6357  17.2752  17.7232
    18.6734  20.0285  33.1586  33.6005

     occupation numbers 
     1.0000   1.0000   1.0000   1.0000   1.0000   1.0016   0.8564   0.0284
     0.0000   0.0000   0.0000   0.0000

          k =-0.0625-0.1250 0.5625 (   787 PWs)   bands (ev):

   -67.8716 -34.1070 -33.9898 -33.9314  14.2730  16.2163  17.1974  18.0135
    19.1344  20.5551  30.6793  32.4559

     occupation numbers 
     1.0000   1.0000   1.0000   1.0000   1.0000   1.0000   1.0000   0.0002
     0.0000   0.0000   0.0000   0.0000

          k =-0.0625-0.1875 0.6250 (   783 PWs)   bands (ev):

   -67.8626 -34.1469 -34.0118 -33.9298  14.7996  15.9489  17.0737  18.2293
    19.5321  21.5283  28.2419  31.7134

     occupation numbers 
     1.0000   1.0000   1.0000   1.0000   1.0000   1.0000   1.0829   0.0000
     0.0000   0.0000   0.0000   0.0000

          k =-0.0625 0.7500-0.3125 (   787 PWs)   bands (ev):

   -67.8579 -34.1695 -34.0238 -33.9284  15.0211  15.8820  16.9809  18.3026
    19.7855  22.6996  26.3487  31.3009

     occupation numbers 
     1.0000   1.0000   1.0000   1.0000   1.0000   1.0000   1.0673   0.0000
     0.0000   0.0000   0.0000   0.0000

          k =-0.1250-0.1250 0.6250 (   787 PWs)   bands (ev):

   -67.8620 -34.1308 -34.0263 -33.9355  14.8377  15.8700  17.1358  18.2984
    19.3571  21.5395  29.6885  30.0556

     occupation numbers 
     1.0000   1.0000   1.0000   1.0000   1.0000   1.0000   1.0619   0.0000
     0.0000   0.0000   0.0000   0.0000

          k =-0.1250 0.8125-0.3125 (   782 PWs)   bands (ev):

   -67.8555 -34.1458 -34.0536 -33.9356  15.2058  15.6720  16.9662  18.5643
    19.5151  22.9197  27.5184  29.3439

     occupation numbers 
     1.0000   1.0000   1.0000   1.0000   1.0000   1.0000   1.0624   0.0000
     0.0000   0.0000   0.0000   0.0000

          k =-0.1250 0.7500-0.2500 (   784 PWs)   bands (ev):

   -67.8533 -34.1511 -34.0640 -33.9352  15.2994  15.6568  16.8736  18.6549
    19.5876  24.0070  26.1267  29.1349

     occupation numbers 
     1.0000   1.0000   1.0000   1.0000   1.0000   1.0000   1.0320   0.0000
     0.0000   0.0000   0.0000   0.0000

          k =-0.1875 0.8125-0.2500 (   786 PWs)   bands (ev):

   -67.8518 -34.1309 -34.0932 -33.9365  15.4770  15.5207  16.7798  18.9665
    19.3610  24.6057  26.5985  27.6897

     occupation numbers 
     1.0000   1.0000   1.0000   1.0000   1.0000   1.0000   1.0120   0.0000
     0.0000   0.0000   0.0000   0.0000

          k = 0.6250-0.6250 0.3750 (   790 PWs)   bands (ev):

   -67.8795 -34.1312 -33.9338 -33.9338  15.1601  15.7359  15.7359  19.3494
    19.3494  22.1949  29.6051  29.6051

     occupation numbers 
     1.0000   1.0000   1.0000   1.0000   1.0000   1.0000   1.0000   0.0000
     0.0000   0.0000   0.0000   0.0000

          k = 0.5625-0.5625 0.3750 (   784 PWs)   bands (ev):

   -67.8757 -34.1095 -33.9803 -33.9376  15.4385  15.6687  15.8706  19.3708
    19.4294  23.4759  27.5810  29.1924

     occupation numbers 
     1.0000   1.0000   1.0000   1.0000   1.0000   1.0000   1.0000   0.0000
     0.0000   0.0000   0.0000   0.0000

          k = 0.5000-0.5000 0.3750 (   790 PWs)   bands (ev):

   -67.8746 -34.0932 -34.0061 -33.9391  15.4280  15.6474  16.0346  19.3811
    19.4544  24.4971  26.2389  29.0533

     occupation numbers 
     1.0000   1.0000   1.0000   1.0000   1.0000   1.0000   1.0000   0.0000
     0.0000   0.0000   0.0000   0.0000

          k = 0.5000-0.5625 0.4375 (   793 PWs)   bands (ev):

   -67.8743 -34.0694 -34.0131 -33.9600  15.5641  15.7244  15.8388  19.4264
    19.4484  25.0179  26.8416  27.7669

     occupation numbers 
     1.0000   1.0000   1.0000   1.0000   1.0000   1.0000   1.0000   0.0000
     0.0000   0.0000   0.0000   0.0000

          k = 0.0000 0.0000 0.5000 (   771 PWs)   bands (ev):

   -67.8833 -34.0272 -33.9578 -33.9578  13.4475  16.8230  17.5030  17.5030
    18.4041  20.0124  34.6207  34.6207

     occupation numbers 
     1.0000   1.0000   1.0000   1.0000   1.0000   1.0196   0.2739   0.2739
     0.0000   0.0000   0.0000   0.0000

          k = 0.0000-0.0625 0.5625 (   786 PWs)   bands (ev):

   -67.8714 -34.0705 -33.9864 -33.9704  14.1436  16.3385  17.5726  17.7942
    18.8040  20.4152  32.2157  33.3387

     occupation numbers 
     1.0000   1.0000   1.0000   1.0000   1.0000   1.0000   0.1525   0.0105
     0.0000   0.0000   0.0000   0.0000

          k = 0.0000-0.1250 0.6250 (   782 PWs)   bands (ev):

   -67.8609 -34.1186 -34.0097 -33.9682  14.6915  15.9298  17.5212  18.0604
    19.3176  21.2184  29.6500  32.2936

     occupation numbers 
     1.0000   1.0000   1.0000   1.0000   1.0000   1.0000   0.2377   0.0001
     0.0000   0.0000   0.0000   0.0000

          k = 0.0000-0.1875 0.6875 (   783 PWs)   bands (ev):

   -67.8540 -34.1526 -34.0253 -33.9651  15.0129  15.6878  17.4655  18.1742
    19.7249  22.4659  27.3535  31.5898

     occupation numbers 
     1.0000   1.0000   1.0000   1.0000   1.0000   1.0000   0.3579   0.0000
     0.0000   0.0000   0.0000   0.0000

          k = 0.0000 0.7500-0.2500 (   782 PWs)   bands (ev):

   -67.8516 -34.1647 -34.0307 -33.9636  15.1040  15.6230  17.4438  18.1957
    19.8800  23.4224  26.0587  31.3382

     occupation numbers 
     1.0000   1.0000   1.0000   1.0000   1.0000   1.0000   0.4114   0.0000
     0.0000   0.0000   0.0000   0.0000

          k =-0.0625-0.0625 0.6250 (   785 PWs)   bands (ev):

   -67.8604 -34.0993 -34.0176 -33.9828  14.6471  15.9342  17.6800  18.0873
    19.1301  21.1298  31.0994  31.2831

     occupation numbers 
     1.0000   1.0000   1.0000   1.0000   1.0000   1.0000   0.0488   0.0000
     0.0000   0.0000   0.0000   0.0000

          k =-0.0625-0.1250 0.6875 (   782 PWs)   bands (ev):

   -67.8520 -34.1296 -34.0427 -33.9823  14.9898  15.6067  17.6237  18.3808
    19.4877  22.3207  28.7639  30.3876

     occupation numbers 
     1.0000   1.0000   1.0000   1.0000   1.0000   1.0000   0.0919   0.0000
     0.0000   0.0000   0.0000   0.0000

          k =-0.0625 0.8125-0.2500 (   786 PWs)   bands (ev):

   -67.8475 -34.1481 -34.0561 -33.9806  15.1618  15.4317  17.5655  18.5112
    19.7333  23.8000  26.6765  29.9272

     occupation numbers 
     1.0000   1.0000   1.0000   1.0000   1.0000   1.0000   0.1628   0.0000
     0.0000   0.0000   0.0000   0.0000

          k =-0.1250 0.8750-0.2500 (   779 PWs)   bands (ev):

   -67.8459 -34.1324 -34.0772 -33.9834  15.1756  15.3732  17.5368  18.8303
    19.5393  23.8429  27.8951  28.4028

     occupation numbers 
     1.0000   1.0000   1.0000   1.0000   1.0000   1.0000   0.2091   0.0000
     0.0000   0.0000   0.0000   0.0000

          k =-0.1250 0.8125-0.1875 (   789 PWs)   bands (ev):

   -67.8440 -34.1302 -34.0942 -33.9832  15.2463  15.2838  17.4891  19.0406
    19.5241  25.2487  26.3954  28.0238

     occupation numbers 
     1.0000   1.0000   1.0000   1.0000   1.0000   1.0000   0.3036   0.0000
     0.0000   0.0000   0.0000   0.0000

          k = 0.5000-0.5000 0.5000 (   784 PWs)   bands (ev):

   -67.8738 -34.0152 -34.0152 -34.0152  15.7213  15.7213  15.7213  19.4612
    19.4612  26.6887  26.6887  26.6887

     occupation numbers 
     1.0000   1.0000   1.0000   1.0000   1.0000   1.0000   1.0000   0.0000
     0.0000   0.0000   0.0000   0.0000

          k = 0.0000 0.0000 0.6250 (   791 PWs)   bands (ev):

   -67.8600 -34.0732 -34.0149 -34.0149  14.5772  15.9642  18.0063  18.0063
    18.9049  21.0020  31.9739  31.9739

     occupation numbers 
     1.0000   1.0000   1.0000   1.0000   1.0000   1.0000   0.0002   0.0002
     0.0000   0.0000   0.0000   0.0000

          k = 0.0000-0.0625 0.6875 (   786 PWs)   bands (ev):

   -67.8501 -34.1027 -34.0390 -34.0240  14.8568  15.5891  18.1677  18.3027
    19.2714  21.9907  30.0581  30.8564

     occupation numbers 
     1.0000   1.0000   1.0000   1.0000   1.0000   1.0000   0.0000   0.0000
     0.0000   0.0000   0.0000   0.0000

          k = 0.0000-0.1250 0.7500 (   790 PWs)   bands (ev):

   -67.8437 -34.1321 -34.0551 -34.0210  15.0185  15.3172  18.1812  18.4798
    19.6640  23.4271  27.8289  30.0972

     occupation numbers 
     1.0000   1.0000   1.0000   1.0000   1.0000   1.0000   0.0000   0.0000
     0.0000   0.0000   0.0000   0.0000

          k = 0.0000 0.8125-0.1875 (   790 PWs)   bands (ev):

   -67.8414 -34.1431 -34.0606 -34.0193  15.0965  15.1949  18.1766  18.5310
    19.8246  24.6834  26.3017  29.8238

     occupation numbers 
     1.0000   1.0000   1.0000   1.0000   1.0000   1.0000   0.0000   0.0000
     0.0000   0.0000   0.0000   0.0000

          k =-0.0625-0.0625 0.7500 (   788 PWs)   bands (ev):

   -67.8423 -34.1172 -34.0669 -34.0320  14.9564  15.2886  18.2739  18.7349
    19.5034  23.2702  29.0837  29.2378

     occupation numbers 
     1.0000   1.0000   1.0000   1.0000   1.0000   1.0000   0.0000   0.0000
     0.0000   0.0000   0.0000   0.0000

          k =-0.0625 0.8750-0.1875 (   794 PWs)   bands (ev):

   -67.8381 -34.1287 -34.0841 -34.0309  15.0148  15.1012  18.2710  18.9967
    19.6868  24.8865  27.1447  28.6635

     occupation numbers 
     1.0000   1.0000   1.0000   1.0000   1.0000   1.0000   0.0000   0.0000
     0.0000   0.0000   0.0000   0.0000

          k =-0.1250 0.8750-0.1250 (   790 PWs)   bands (ev):

   -67.8360 -34.1122 -34.1122 -34.0312  15.0173  15.0173  18.2600  19.4640
    19.4640  26.4742  26.4742  27.4083

     occupation numbers 
     1.0000   1.0000   1.0000   1.0000   1.0000   1.0000   0.0000   0.0000
     0.0000   0.0000   0.0000   0.0000

          k = 0.0000 0.0000 0.7500 (   795 PWs)   bands (ev):

   -67.8411 -34.0976 -34.0635 -34.0635  14.8774  15.2614  18.7005  18.7005
    19.3384  23.0549  29.6646  29.6646

     occupation numbers 
     1.0000   1.0000   1.0000   1.0000   1.0000   1.0000   0.0000   0.0000
     0.0000   0.0000   0.0000   0.0000

          k = 0.0000-0.0625 0.8125 (   791 PWs)   bands (ev):

   -67.8348 -34.1149 -34.0797 -34.0680  14.8673  15.0193  18.8903  18.9917
    19.6184  24.4846  28.1830  28.8423

     occupation numbers 
     1.0000   1.0000   1.0000   1.0000   1.0000   1.0000   0.0000   0.0000
     0.0000   0.0000   0.0000   0.0000

          k = 0.0000 0.8750-0.1250 (   794 PWs)   bands (ev):

   -67.8327 -34.1246 -34.0855 -34.0662  14.8900  14.9027  18.9136  19.0899
    19.7780  25.8909  26.6730  28.5421

     occupation numbers 
     1.0000   1.0000   1.0000   1.0000   1.0000   1.0000   0.0000   0.0000
     0.0000   0.0000   0.0000   0.0000

          k =-0.0625 0.9375-0.1250 (   795 PWs)   bands (ev):

   -67.8308 -34.1156 -34.1004 -34.0720  14.8182  14.8580  18.9893  19.4216
    19.6846  25.9564  27.5084  27.7217

     occupation numbers 
     1.0000   1.0000   1.0000   1.0000   1.0000   1.0000   0.0000   0.0000
     0.0000   0.0000   0.0000   0.0000

          k = 0.0000 0.0000 0.8750 (   792 PWs)   bands (ev):

   -67.8288 -34.1063 -34.0962 -34.0962  14.7435  14.8052  19.4065  19.4065
    19.6324  25.6993  27.9605  27.9605

     occupation numbers 
     1.0000   1.0000   1.0000   1.0000   1.0000   1.0000   0.0000   0.0000
     0.0000   0.0000   0.0000   0.0000

          k = 0.0000 0.9375-0.0625 (   788 PWs)   bands (ev):

   -67.8267 -34.1120 -34.1017 -34.0971  14.7079  14.7185  19.5024  19.5588
    19.7474  26.8772  27.0901  27.6334

     occupation numbers 
     1.0000   1.0000   1.0000   1.0000   1.0000   1.0000   0.0000   0.0000
     0.0000   0.0000   0.0000   0.0000

          k = 0.0000 0.0000-1.0000 (   784 PWs)   bands (ev):

   -67.8245 -34.1075 -34.1075 -34.1075  14.6476  14.6476  19.7365  19.7365
    19.7365  27.2936  27.2936  27.2936

     occupation numbers 
     1.0000   1.0000   1.0000   1.0000   1.0000   1.0000   0.0000   0.0000
     0.0000   0.0000   0.0000   0.0000

     the Fermi energy is    17.4481 ev

!    total energy              =    -329.26290531 Ry
     total all-electron energy =     -2545.559438 Ry
     estimated scf accuracy    <          9.9E-09 Ry
     smearing contrib. (-TS)   =       0.00067411 Ry
     internal energy E=F+TS    =    -329.26357943 Ry

     The total energy is F=E-TS. E is the sum of the following terms:
     one-electron contribution =    -113.07244305 Ry
     hartree contribution      =      66.21853804 Ry
     xc contribution           =     -27.72930723 Ry
     ewald contribution        =    -171.88999319 Ry
     one-center paw contrib.   =     -82.79037400 Ry
      -> PAW hartree energy AE =     182.92000165 Ry
      -> PAW hartree energy PS =    -181.62354113 Ry
      -> PAW xc energy AE      =    -110.14685360 Ry
      -> PAW xc energy PS      =      26.06001907 Ry
      -> total E_H with PAW    =      67.51499857 Ry
      -> total E_XC with PAW   =    -111.81614176 Ry

     total magnetization       =     2.19 Bohr mag/cell
     absolute magnetization    =     2.32 Bohr mag/cell

     convergence has been achieved in  19 iterations

     Writing all to output data dir ./tmp/fe.save/ :
     XML data file, charge density, pseudopotentials, collected wavefunctions

     init_run     :      1.95s CPU      2.12s WALL (       1 calls)
     electrons    :     18.38s CPU     19.02s WALL (       1 calls)

     Called by init_run:
     wfcinit      :      0.28s CPU      0.28s WALL (       1 calls)
     wfcinit:atom :      0.01s CPU      0.01s WALL (      49 calls)
     wfcinit:wfcr :      0.25s CPU      0.25s WALL (      49 calls)
     potinit      :      0.72s CPU      0.83s WALL (       1 calls)
     hinit0       :      0.83s CPU      0.84s WALL (       1 calls)

     Called by electrons:
     c_bands      :     10.05s CPU     10.44s WALL (      19 calls)
     sum_band     :      2.77s CPU      2.89s WALL (      19 calls)
     v_of_rho     :      1.51s CPU      1.56s WALL (      20 calls)
     v_h          :      0.03s CPU      0.04s WALL (      20 calls)
     v_xc         :      1.48s CPU      1.52s WALL (      20 calls)
     newd         :      0.45s CPU      0.48s WALL (      20 calls)
     PAW_pot      :      3.68s CPU      3.83s WALL (      20 calls)
     mix_rho      :      0.19s CPU      0.19s WALL (      19 calls)

     Called by c_bands:
     init_us_2    :      0.48s CPU      0.49s WALL (    1911 calls)
     cegterg      :      7.21s CPU      7.51s WALL (     931 calls)

     Called by sum_band:
     sum_band:wei :      0.03s CPU      0.03s WALL (      19 calls)
     sum_band:loo :      1.70s CPU      1.77s WALL (      19 calls)
     sum_band:buf :      0.03s CPU      0.03s WALL (     931 calls)
     sum_band:ini :      0.21s CPU      0.22s WALL (     931 calls)
     sum_band:cal :      0.11s CPU      0.11s WALL (     931 calls)
     sum_band:bec :      0.01s CPU      0.01s WALL (     931 calls)
     addusdens    :      0.74s CPU      0.76s WALL (      19 calls)
                                        0.00s GPU  (      19 calls)
     addusd:skk   :      0.00s CPU      0.00s WALL (      19 calls)
                                        0.00s GPU  (      19 calls)

     Called by *egterg:
     cdiaghg      :      0.36s CPU      0.38s WALL (    2462 calls)
     cegterg:over :      0.25s CPU      0.26s WALL (    1531 calls)
     cegterg:upda :      0.12s CPU      0.13s WALL (    1531 calls)
     cegterg:last :      0.18s CPU      0.19s WALL (    1304 calls)
     h_psi        :      6.07s CPU      6.32s WALL (    2511 calls)
     s_psi        :      0.12s CPU      0.13s WALL (    2511 calls)
     g_psi        :      0.07s CPU      0.07s WALL (    1531 calls)

     Called by h_psi:
     h_psi:calbec :      0.28s CPU      0.30s WALL (    2511 calls)
     vloc_psi     :      5.54s CPU      5.76s WALL (    2511 calls)
                                        0.00s GPU  (    2511 calls)
     add_vuspsi   :      0.16s CPU      0.17s WALL (    2511 calls)

     General routines
     calbec       :      0.38s CPU      0.39s WALL (    3442 calls)
     fft          :      0.63s CPU      0.64s WALL (     494 calls)
     ffts         :      0.10s CPU      0.10s WALL (     452 calls)
     fftw         :      5.51s CPU      5.74s WALL (   60778 calls)
     interpolate  :      0.10s CPU      0.10s WALL (      40 calls)

     Parallel routines

     PAW routines
     PAW_pot      :      3.68s CPU      3.83s WALL (      20 calls)
     PAW_symme    :      0.06s CPU      0.07s WALL (      39 calls)

     PWSCF        :     20.55s CPU     21.41s WALL


   This run was terminated on:  15:51: 1  25Jul2026            

=------------------------------------------------------------------------------=
   JOB DONE.
=------------------------------------------------------------------------------=
