22
alanine dipeptide, RDKit ETKDG+MMFF seed 20260928
C      2.188954     1.781218     1.161899
C      1.484259     1.028578     0.067099
O      1.251275     1.525242    -1.031243
N      1.083144    -0.237874     0.415699
C      0.334774    -1.092246    -0.509837
C      0.581908    -2.558145    -0.174484
C     -1.176312    -0.756329    -0.478910
O     -2.049072    -1.599600    -0.287875
N     -1.462301     0.565847    -0.757559
C     -2.814720     1.025706    -0.928398
H      1.494783     2.497539     1.608719
H      2.555621     1.104496     1.938904
H      3.046211     2.311380     0.738002
H      1.006093    -0.453848     1.401912
H      0.688115    -0.898466    -1.530274
H      0.058798    -3.215653    -0.876900
H      0.230643    -2.800033     0.835110
H      1.650871    -2.792746    -0.219533
H     -0.700650     1.137033    -1.125672
H     -2.827097     2.113582    -0.830950
H     -3.467131     0.575267    -0.175646
H     -3.158162     0.739052    -1.925801
