
                                 *****************
                                 * O   R   C   A *
                                 *****************

                                            #,                                       
                                            ###                                      
                                            ####                                     
                                            #####                                    
                                            ######                                   
                                           ########,                                 
                                     ,,################,,,,,                         
                               ,,#################################,,                 
                          ,,##########################################,,             
                       ,#########################################, ''#####,          
                    ,#############################################,,   '####,        
                  ,##################################################,,,,####,       
                ,###########''''           ''''###############################       
              ,#####''   ,,,,##########,,,,          '''####'''          '####       
            ,##' ,,,,###########################,,,                        '##       
           ' ,,###''''                  '''############,,,                           
         ,,##''                                '''############,,,,        ,,,,,,###''
      ,#''                                            '''#######################'''  
     '                                                          ''''####''''         
             ,#######,   #######,   ,#######,      ##                                
            ,#'     '#,  ##    ##  ,#'     '#,    #''#        ,####,    ,#,          
            ##       ##  ##   ,#'  ##            #'  '#       #'       ,# #          
            ##       ##  #######   ##           ,######,      #####,      #          
            '#,     ,#'  ##    ##  '#,     ,#' ,#      #,     #,   #      #          
             '#######'   ##     ##  '#######'  #'      '#     '####' #    #          



                #########################################################
                #                        -***-                          #
                #          Department of theory and spectroscopy        #
                #                                                       #
                #                      Frank Neese                      #
                #                                                       #
                #     Directorship, Architecture, Infrastructure        #
                #                    SHARK, DRIVERS                     #
                #        Core code/Algorithms in most modules           #
                #                                                       #
                #        Max Planck Institute fuer Kohlenforschung      #
                #                Kaiser Wilhelm Platz 1                 #
                #                 D-45470 Muelheim/Ruhr                 #
                #                      Germany                          #
                #                                                       #
                #                  All rights reserved                  #
                #                        -***-                          #
                #########################################################


                         Program Version 6.1.0  -  RELEASE   -
                                (GIT: $679e74b$)
                          ($2025-06-10 18:02:51 +0200$)


 With contributions from (in alphabetic order):
[Max-Planck-Institut fuer Kohlenforschung]                               
  Daniel Aravena         : Magnetic Suceptibility                        
  Michael Atanasov       : Ab Initio Ligand Field Theory (pilot matlab implementation)
  Alexander A. Auer      : GIAO ZORA, VPT2 properties, NMR spectrum      
  Ute Becker             : All parallelization in ORCA, NUMFREQ, NUMCALC 
  Giovanni Bistoni       : ED, misc. LED, open-shell LED, HFLD           
  Dmytro Bykov           : pre 5.0 version of the SCF Hessian            
  Marcos Casanova-Páez   : Triplet and SCS-CIS(D). UHF-(DLPNO)-IP/EA/STEOM-CCSD. UHF-CVS-IP/STEOM-CCSD   
  Vijay G. Chilkuri      : MRCI spin determinant printing, contributions to CSF-ICE 
  Pauline Colinet        : FMM embedding                                 
  Dipayan Datta          : RHF DLPNO-CCSD density                        
  Achintya Kumar Dutta   : EOM-CC, STEOM-CC                              
  Nicolas Foglia         : Exact transition moments, OPA infrastructure, MCD improvements    
  Dmitry Ganyushin       : Spin-Orbit,Spin-Spin,Magnetic field MRCI      
  Miquel Garcia-Rates    : C-PCM and meta-GGA Hessian, CCSD/C-PCM, Gaussian charge scheme 
  Tiago L. C. Gouveia    : GS-ROHF, GS-ROCIS                             
  Yang Guo               : DLPNO-NEVPT2, F12-NEVPT2, CIM, IAO-localization        
  Andreas Hansen         : Spin unrestricted coupled pair/coupled cluster methods 
  Ingolf Harden          : AUTO-CI MPn and infrastructure                
  Benjamin Helmich-Paris : MC-RPA, TRAH-(SCF,CASSCF), AVAS, COSX integrals, SCF dyn. polar., MC-PDFT, srDFT 
  Lee Huntington         : MR-EOM, pCC                                   
  Robert Izsak           : Overlap fitted RIJCOSX, COSX-SCS-MP3, EOM     
  Riya Kayal             : Wick's Theorem for AUTO-CI, AUTO-CI UHF-CCSDT 
  Emily Kempfer          : AUTO-CI RHF CISDT and CCSDT, approximate NEVPT4
  Christian Kollmar      : KDIIS, OOCD, Brueckner-CCSD(T), CCSD density, CASPT2, CASPT2-K, improved NEVPT2 
  Axel Koslowski         : Symmetry handling                             
  Simone Kossmann        : meta-GGA functionals, TD-DFT gradient, OOMP2, (MP2 Hessian; deprecated post 5.0) 
  Lucas Lang             : DCDCAS, Hyperfine gauge corrections, ICE-SOC+SSC
  Marvin Lechner         : AUTO-CI (C++ implementation), FIC-MRCC        
  Spencer Leger          : CASSCF response                               
  Dagmar Lenk            : GEPOL surface, SMD, ORCA-2-JSON               
  Dimitrios Liakos       : Extrapolation schemes; Compound Job, Property file
  Dimitrios Manganas     : Further ROCIS development; embedding schemes. LFT, Crystal Embedding 
  Dimitrios Pantazis     : SARC Basis sets                               
  Anastasios Papadopoulos: AUTO-CI, single reference methods and gradients 
  Taras Petrenko         : pre 6.0 DFT Hessian and TD-DFT gradient,  ECA, NRVS 
  Petra Pikulova         : Analytic Raman intensities                    
  Peter Pinski           : DLPNO-MP2, DLPNO-MP2 Gradient                 
  Shashank Vittal Rao    : ES-AILFT, MagRelax                            
  Christoph Reimann      : Effective Core Potentials                     
  Marius Retegan         : Local ZFS, SOC                                
  Christoph Riplinger    : Optimizer, TS searches, QM/MM, DLPNO-CCSD(T), (RO)-DLPNO pert. Triples 
  Michael Roemelt        : Original ROCIS implementation, recursive CI coupling coefficients
  Masaaki Saitow         : Open-shell DLPNO-CCSD energy and density      
  Barbara Sandhoefer     : DKH picture change effects                    
  Yorick L. A. Schmerwitz: GMF and freeze-and-release deltaSCF, NEB S-IDPP initial path                    
  Kantharuban Sivalingam : CASSCF convergence/infrastructure, NEVPT2, NEVPT3, NEVPT4(SD), FIC-MRCI and CEPA variants
  Bernardo de Souza      : ESD, SOC TD-DFT                               
  Georgi L. Stoychev     : AutoAux, RI-MP2 NMR, DLPNO-MP2 response, X2C  
  Van Anh Tran           : RI-MP2 g-tensors                              
  Willem Van den Heuvel  : Paramagnetic NMR                              
  Zikuan Wang            : NOTCH, Electric field optimization            
  Frank Wennmohs         : Technical directorship and infrastructure     
  Hang Xu                : AUTO-CI-Response properties                   
                                                                         
[FACCTs GmbH]                                                            
  Markus Bursch, Nicolas Foglia, Miquel Garcia-Rates, Ingolf Harden, Hagen Neugebauer, Anastasios Papadopoulos, 
  Christoph Riplinger, Bernardo de Souza, Georgi L. Stoychev                                                    
                                                                 
  APM, various basis sets, CI-OPT, improved COSX, DLPNO-Multilevel,           
  DOCKER, DRACO, updates on ESD, Fragmentator, GOAT, IRC, LR-CPCM, L-BFGS, MBIS, meta-GGA TD-DFT gradient, ML-optimized integration grids, 
  MM, NACMEs, nearIR, NEB, NEB-TS, NL-DFT gradient (VV10), 2- and 3-layer-ONIOM, interface openCOSMO-RS, QMMM,   
  Crystal-QMMM, RESP, rigid body optimization, SF, symmetry and pop. for TD-DFT, various functionals, SOLVATOR                                   
                                                                         
[Other institutions]                                                     
  V. Asgeirsson          : NEB                                           
  Christoph Bannwarth    : sTDA-DFT, sTD-DFT, PBEh-3c, B97-3c, D3        
  Giovanni Bistoni       : ETS/NOCV, ADLD/ADEX, COVALED                  
  Martin Brehm           : Molecular dynamics                            
  Ronald Cardenas        : ETS/NOCV                                      
  Martina Colucci        : COVALED                                       
  Sebastian Ehlert       : rSCAN, r2SCAN, r2SCAN-3c, D4, dhf basis sets  
  Marvin Friede          : D4 for Fr, Ra, Ac-Lr                          
  Lars Goerigk           : TD-DFT with DH, B97 family of functionals     
  Stefan Grimme          : VdW corrections, initial TS optimization, DFT functionals, gCP, sTDA/sTD-DF 
  Waldemar Hujo          : DFT-NL                                        
  H. Jonsson             : NEB                                           
  Holger Kruse           : gCP                                           
  Marcel Mueller         : wB97X-3c, vDZP basis set                      
  Hagen Neugebauer       : wr2SCAN, Native XTB                           
  Gianluca Regni         : ADLD/ADEX                                     
  Tobias Risthaus        : pre 6.0 range-separated hybrid DFT and stability analysis
  Lukas Wittmann         : regularized MP2, r2SCAN double-hybrids, wr2SCAN        
                                                                         
We gratefully acknowledge several colleagues who have allowed us to      
interface, adapt or use parts of their codes:                            
  Ed Valeev, F. Pavosevic, A. Kumar             : LibInt (2-el integral package), F12 methods 
  Garnet Chan, S. Sharma, J. Yang, R. Olivares  : DMRG                   
  Ulf Ekstrom                                   : XCFun DFT Library      
  Mihaly Kallay                                 : mrcc  (arbitrary order and MRCC methods)
  Frank Weinhold                                : gennbo (NPA and NBO analysis)           
  Simon Mueller                                 : openCOSMO-RS                            
  Christopher J. Cramer and Donald G. Truhlar   : smd solvation model                     
  S Lehtola, MJT Oliveira, MAL Marques          : LibXC Library                           
  Liviu Ungur et al                             : ANISO software                          


 Your calculation uses the libint2 library for the computation of 2-el integrals
 For citations please refer to: http://libint.valeyev.net

 Your ORCA version has been built with support for libXC version: 7.0.0
 For citations please refer to: https://libxc.gitlab.io

 This ORCA versions uses:
   CBLAS   interface :  Fast vector & matrix operations
   LAPACKE interface :  Fast linear algebra routines
   SCALAPACK package :  Parallel linear algebra routines
   Shared memory     :  Shared parallel matrices
   BLAS/LAPACK       :  OpenBLAS 0.3.29  USE64BITINT DYNAMIC_ARCH NO_AFFINITY SapphireRapids SINGLE_THREADED
        Core in use  :  SapphireRapids
   Copyright (c) 2011-2014, The OpenBLAS Project


  ***********************************
  * Starting time: Mon Sep 28 23:18:56 2026
  * Host name:     IN-006
  * Process ID:    66098
  * Working dir.:  /nfs/home/svu/e1075536/guide-runs/xtb-md/o01-xtb-opt-freq
  ***********************************



***************************************
The coordinates will be read from file: ../ala.xyz
***************************************


Your calculation utilizes the semiempirical GFN2-xTB method
Please cite in your paper:
Bannwarth, C.; Ehlert S.; Grimme, S. J. Chem. Theory Comput. 2019, 15, 1652.
   

================================================================================

================================================================================
                                        WARNINGS
                       Please study these warnings very carefully!
================================================================================


WARNING: Analytical Hessian for XTB is limited in the analysis of the data.
       : If you want to obtain extensive IR and deltaG analysis, please use ! XTB NumFreq. 


WARNING: Geometry Optimization
  ===> : Switching off AutoStart
         For restart on a previous wavefunction, please use MOREAD

WARNING: Found dipole moment calculation with XTB calculation
  ===> : Switching off dipole moment calculation

[IN-006:66099] mca_base_component_repository_open: unable to open mca_plm_tm: libpbs.so.0: cannot open shared object file: No such file or directory (ignored)
[IN-006:66099] mca_base_component_repository_open: unable to open mca_ras_tm: libpbs.so.0: cannot open shared object file: No such file or directory (ignored)

WARNING: Found frequency calculation in combination with XTB calculation
  ===> : Need to redirect dipole moment calculation to properties.out


================================================================================
                                       INPUT FILE
================================================================================
NAME = o01-xtb-opt-freq.inp
|  1> # GFN2-xTB optimisation + frequencies inside ORCA, implicit water
|  2> ! XTB2 Opt Freq ALPB(water)
|  3> %pal nprocs 8 end
|  4> * xyzfile 0 1 ../ala.xyz
|  5> 
|  6>                          ****END OF INPUT****
================================================================================

                       *****************************
                       * Geometry Optimization Run *
                       *****************************

Geometry optimization settings:
Update method            Update   .... BFGS
Choice of coordinates    CoordSys .... (2022) Redundant Internals
Initial Hessian          InHess   .... Almloef's Model
Max. no of cycles        MaxIter  .... 66

Convergence Tolerances:
Energy Change            TolE     ....  5.0000e-06 Eh
Max. Gradient            TolMAXG  ....  3.0000e-04 Eh/bohr
RMS Gradient             TolRMSG  ....  1.0000e-04 Eh/bohr
Max. Displacement        TolMAXD  ....  4.0000e-03 bohr
RMS Displacement         TolRMSD  ....  2.0000e-03 bohr
Strict Convergence                .... False

------------------------------------------------------------------------------
                        ORCA OPTIMIZATION COORDINATE SETUP
------------------------------------------------------------------------------

The optimization will be done in redundant internal coordinates (2022)
Making redundant internal coordinates   ...  (2022 redundants) done
Evaluating the initial hessian          ...  (Almloef) done
Evaluating the coordinates              ...  done
Calculating the B-matrix                .... done
Calculating the G-matrix                .... done
The number of degrees of freedom        ....   92

    -----------------------------------------------------------------
                    Redundant Internal Coordinates


    -----------------------------------------------------------------
         Definition                    Initial Value    Approx d2E/dq
    -----------------------------------------------------------------
      1. B(C   1,C   0)                  1.5039         0.411200   
      2. B(O   2,C   1)                  1.2277         1.015717   
      3. B(N   3,C   1)                  1.3734         0.594714   
      4. B(C   4,N   3)                  1.4651         0.424619   
      5. B(C   5,C   4)                  1.5239         0.381983   
      6. B(C   6,C   4)                  1.5483         0.349309   
      7. B(O   7,C   6)                  1.2285         1.012686   
      8. B(N   8,C   6)                  1.3812         0.578083   
      9. B(C   9,N   8)                  1.4386         0.468025   
     10. B(H  10,C   0)                  1.0930         0.356160   
     11. B(H  11,C   0)                  1.0937         0.355266   
     12. B(H  12,C   0)                  1.0935         0.355555   
     13. B(H  13,N   3)                  1.0125         0.428720   
     14. B(H  14,C   4)                  1.0971         0.350792   
     15. B(H  15,C   5)                  1.0951         0.353354   
     16. B(H  16,C   5)                  1.0960         0.352273   
     17. B(H  17,C   5)                  1.0953         0.353117   
     18. B(H  18,O   2)                  1.9924         0.011718   
     19. B(H  18,N   8)                  1.0207         0.415996   
     20. B(H  19,C   9)                  1.0923         0.357068   
     21. B(H  20,C   9)                  1.0932         0.355841   
     22. B(H  21,C   9)                  1.0931         0.355982   
     23. A(H  11,C   0,H  12)          108.2149         0.289645   
     24. A(C   1,C   0,H  11)          111.3847         0.328751   
     25. A(C   1,C   0,H  12)          109.1353         0.328795   
     26. A(C   1,C   0,H  10)          109.1470         0.328888   
     27. A(H  10,C   0,H  12)          109.7940         0.289759   
     28. A(H  10,C   0,H  11)          109.1480         0.289722   
     29. A(O   2,C   1,N   3)          123.0024         0.464972   
     30. A(C   0,C   1,N   3)          114.4287         0.397927   
     31. A(C   0,C   1,O   2)          122.5293         0.437716   
     32. A(C   4,N   3,H  13)          116.8746         0.336009   
     33. A(C   1,N   3,C   4)          121.7727         0.397620   
     34. A(C   1,N   3,H  13)          117.7837         0.355580   
     35. A(C   5,C   4,C   6)          111.2583         0.360577   
     36. A(N   3,C   4,C   5)          109.8209         0.370511   
     37. A(N   3,C   4,C   6)          111.0620         0.364871   
     38. A(C   6,C   4,H  14)          107.1324         0.319399   
     39. A(C   5,C   4,H  14)          108.8047         0.324109   
     40. A(N   3,C   4,H  14)          108.6659         0.327827   
     41. A(H  16,C   5,H  17)          107.6621         0.288950   
     42. A(C   4,C   5,H  17)          110.8081         0.324461   
     43. A(H  15,C   5,H  16)          107.7723         0.288980   
     44. A(C   4,C   5,H  16)          111.2867         0.324334   
     45. A(C   4,C   5,H  15)          111.0335         0.324497   
     46. A(H  15,C   5,H  17)          108.1311         0.289089   
     47. A(O   7,C   6,N   8)          122.7764         0.462313   
     48. A(C   4,C   6,N   8)          113.9386         0.384824   
     49. A(C   4,C   6,O   7)          123.1971         0.424848   
     50. A(C   9,N   8,H  18)          118.6703         0.339794   
     51. A(C   6,N   8,H  18)          116.9970         0.352074   
     52. A(C   6,N   8,C   9)          121.6421         0.402475   
     53. A(N   8,C   9,H  19)          108.5668         0.334128   
     54. A(H  20,C   9,H  21)          109.4336         0.289773   
     55. A(H  19,C   9,H  21)          109.8166         0.289930   
     56. A(N   8,C   9,H  21)          108.6557         0.333959   
     57. A(H  19,C   9,H  20)          110.0087         0.289912   
     58. A(N   8,C   9,H  20)          110.3366         0.333937   
     59. D(O   2,C   1,C   0,H  10)     75.7319         0.012520   
     60. D(O   2,C   1,C   0,H  11)   -163.6809         0.012520   
     61. D(N   3,C   1,C   0,H  11)     18.5458         0.012520   
     62. D(N   3,C   1,C   0,H  10)   -102.0414         0.012520   
     63. D(O   2,C   1,C   0,H  12)    -44.2617         0.012520   
     64. D(H  13,N   3,C   1,C   0)     19.4728         0.028464   
     65. D(C   4,N   3,C   1,C   0)    177.4966         0.028464   
     66. D(H  13,N   3,C   1,O   2)   -158.2886         0.028464   
     67. D(C   4,N   3,C   1,O   2)     -0.2648         0.028464   
     68. D(H  14,C   4,N   3,C   1)     34.7817         0.015373   
     69. D(C   6,C   4,N   3,H  13)     75.3946         0.015373   
     70. D(C   6,C   4,N   3,C   1)    -82.8180         0.015373   
     71. D(C   5,C   4,N   3,H  13)    -48.0962         0.015373   
     72. D(C   5,C   4,N   3,C   1)    153.6912         0.015373   
     73. D(H  15,C   5,C   4,N   3)   -178.0275         0.011623   
     74. D(H  16,C   5,C   4,H  14)   -179.2556         0.011623   
     75. D(H  16,C   5,C   4,C   6)    -61.4554         0.011623   
     76. D(H  16,C   5,C   4,N   3)     61.9203         0.011623   
     77. D(H  15,C   5,C   4,H  14)    -59.2034         0.011623   
     78. D(H  15,C   5,C   4,C   6)     58.5968         0.011623   
     79. D(N   8,C   6,C   4,C   5)    179.1572         0.010000   
     80. D(N   8,C   6,C   4,N   3)     56.4933         0.010000   
     81. D(O   7,C   6,C   4,H  14)    114.6381         0.010000   
     82. D(O   7,C   6,C   4,C   5)     -4.1693         0.010000   
     83. D(O   7,C   6,C   4,N   3)   -126.8332         0.010000   
     84. D(H  18,N   8,C   6,O   7)   -165.2646         0.026792   
     85. D(H  18,N   8,C   6,C   4)     11.4247         0.026792   
     86. D(C   9,N   8,C   6,O   7)     -4.1086         0.026792   
     87. D(C   9,N   8,C   6,C   4)    172.5808         0.026792   
     88. D(H  19,C   9,N   8,H  18)    -36.3996         0.018712   
     89. D(H  19,C   9,N   8,C   6)    162.7485         0.018712   
     90. D(H  21,C   9,N   8,C   6)    -77.8544         0.018712   
     91. D(H  20,C   9,N   8,H  18)   -157.0260         0.018712   
     92. D(H  20,C   9,N   8,C   6)     42.1221         0.018712   
    -----------------------------------------------------------------

Number of atoms                         .... 22
Number of degrees of freedom            .... 92


         *************************************************************
         *                GEOMETRY OPTIMIZATION CYCLE   1            *
         *************************************************************
---------------------------------
CARTESIAN COORDINATES (ANGSTROEM)
---------------------------------
  C     2.188954    1.781218    1.161899
  C     1.484259    1.028578    0.067099
  O     1.251275    1.525242   -1.031243
  N     1.083144   -0.237874    0.415699
  C     0.334774   -1.092246   -0.509837
  C     0.581908   -2.558145   -0.174484
  C    -1.176312   -0.756329   -0.478910
  O    -2.049072   -1.599600   -0.287875
  N    -1.462301    0.565847   -0.757559
  C    -2.814720    1.025706   -0.928398
  H     1.494783    2.497539    1.608719
  H     2.555621    1.104496    1.938904
  H     3.046211    2.311380    0.738002
  H     1.006093   -0.453848    1.401912
  H     0.688115   -0.898466   -1.530274
  H     0.058798   -3.215653   -0.876900
  H     0.230643   -2.800033    0.835110
  H     1.650871   -2.792746   -0.219533
  H    -0.700650    1.137033   -1.125672
  H    -2.827097    2.113582   -0.830950
  H    -3.467131    0.575267   -0.175646
  H    -3.158162    0.739052   -1.925801

----------------------------
CARTESIAN COORDINATES (A.U.)
----------------------------
  NO LB    ZA    FRAG    MASS        X           Y           Z
   0 C   6.0000    0    12.011    4.136524    3.366014    2.195671
   1 C   6.0000    0    12.011    2.804843    1.943731    0.126799
   2 O   8.0000    0    15.999    2.364567    2.882290   -1.948767
   3 N   7.0000    0    14.007    2.046846   -0.449517    0.785557
   4 C   6.0000    0    12.011    0.632631   -2.064046   -0.963452
   5 C   6.0000    0    12.011    1.099647   -4.834193   -0.329727
   6 C   6.0000    0    12.011   -2.222908   -1.429255   -0.905009
   7 O   8.0000    0    15.999   -3.872185   -3.022806   -0.544005
   8 N   7.0000    0    14.007   -2.763348    1.069296   -1.431579
   9 C   6.0000    0    12.011   -5.319050    1.938303   -1.754418
  10 H   1.0000    0     1.008    2.824730    4.719665    3.040038
  11 H   1.0000    0     1.008    4.829424    2.087195    3.663998
  12 H   1.0000    0     1.008    5.756505    4.367875    1.394622
  13 H   1.0000    0     1.008    1.901240   -0.857648    2.649230
  14 H   1.0000    0     1.008    1.300349   -1.697855   -2.891799
  15 H   1.0000    0     1.008    0.111112   -6.076704   -1.657101
  16 H   1.0000    0     1.008    0.435852   -5.291296    1.578129
  17 H   1.0000    0     1.008    3.119694   -5.277525   -0.414857
  18 H   1.0000    0     1.008   -1.324037    2.148681   -2.127212
  19 H   1.0000    0     1.008   -5.342439    3.994091   -1.570268
  20 H   1.0000    0     1.008   -6.551928    1.087097   -0.331923
  21 H   1.0000    0     1.008   -5.968061    1.396606   -3.639236

      -----------------------------------------------------------      
     |                   =====================                   |     
     |                           x T B                           |     
     |                   =====================                   |     
     |                         S. Grimme                         |     
     |          Mulliken Center for Theoretical Chemistry        |     
     |                    University of Bonn                     |     
      -----------------------------------------------------------      

   * xtb version 6.7.1 (edcfbbe) compiled by 'albert@albert-system' on 2024-07-22

   xtb is free software: you can redistribute it and/or modify it under
   the terms of the GNU Lesser General Public License as published by
   the Free Software Foundation, either version 3 of the License, or
   (at your option) any later version.
   
   xtb is distributed in the hope that it will be useful,
   but WITHOUT ANY WARRANTY; without even the implied warranty of
   MERCHANTABILITY or FITNESS FOR A PARTICULAR PURPOSE.  See the
   GNU Lesser General Public License for more details.
   
   Cite this work as:
   * C. Bannwarth, E. Caldeweyher, S. Ehlert, A. Hansen, P. Pracht,
     J. Seibert, S. Spicher, S. Grimme, WIREs Comput. Mol. Sci., 2020, 11,
     e01493. DOI: 10.1002/wcms.1493
   
   for GFN2-xTB:
   * C. Bannwarth, S. Ehlert and S. Grimme., J. Chem. Theory Comput., 2019,
     15, 1652-1671. DOI: 10.1021/acs.jctc.8b01176
   for GFN1-xTB:
   * S. Grimme, C. Bannwarth, P. Shushkov, J. Chem. Theory Comput., 2017,
     13, 1989-2009. DOI: 10.1021/acs.jctc.7b00118
   for GFN0-xTB:
   * P. Pracht, E. Caldeweyher, S. Ehlert, S. Grimme, ChemRxiv, 2019, preprint.
     DOI: 10.26434/chemrxiv.8326202.v1
   for GFN-FF:
   * S. Spicher and S. Grimme, Angew. Chem. Int. Ed., 2020, 59, 15665-15673.
     DOI: 10.1002/anie.202004239
   
   for ALPB and GBSA implicit solvation:
   * S. Ehlert, M. Stahn, S. Spicher, S. Grimme, J. Chem. Theory Comput.,
     2021, 17, 4250-4261. DOI: 10.1021/acs.jctc.1c00471
   
   for ddCOSMO and CPCM-X implicit solvation:
   * M. Stahn, S. Ehlert, S. Grimme, J. Phys. Chem. A,
     2023, XX, XXXX-XXXX. DOI: 10.1021/acs.jpca.3c04382
   
   for DFT-D4:
   * E. Caldeweyher, C. Bannwarth and S. Grimme, J. Chem. Phys., 2017,
     147, 034112. DOI: 10.1063/1.4993215
   * E. Caldeweyher, S. Ehlert, A. Hansen, H. Neugebauer, S. Spicher,
     C. Bannwarth and S. Grimme, J. Chem. Phys., 2019, 150, 154122.
     DOI: 10.1063/1.5090222
   * E. Caldeweyher, J.-M. Mewes, S. Ehlert and S. Grimme, Phys. Chem. Chem. Phys.
     2020, 22, 8499-8512. DOI: 10.1039/D0CP00502A
   
   for sTDA-xTB:
   * S. Grimme and C. Bannwarth, J. Chem. Phys., 2016, 145, 054103.
     DOI: 10.1063/1.4959605
   
   in the mass-spec context:
   * V. Asgeirsson, C. Bauer and S. Grimme, Chem. Sci., 2017, 8, 4879.
     DOI: 10.1039/c7sc00601b
   * J. Koopman and S. Grimme, ACS Omega 2019, 4, 12, 15120-15133.
     DOI: 10.1021/acsomega.9b02011
   
   for metadynamics refer to:
   * S. Grimme, J. Chem. Theory Comput., 2019, 155, 2847-2862
     DOI: 10.1021/acs.jctc.9b00143
   
   for SPH calculations refer to:
   * S. Spicher and S. Grimme, J. Chem. Theory Comput., 2021, 17, 1701-1714
     DOI: 10.1021/acs.jctc.0c01306
   
   for ONIOM refer to:
   * C. Plett, A. Katbashev, S. Ehlert, S. Grimme, M. Bursch,
     Phys. Chem. Chem. Phys., 2023, 25, 17860-17868. DOI: 10.1039/D3CP02178E
   
   for DIPRO refer to:
   * J. Kohn, N. Gildemeister, S. Grimme, D. Fazzi, A. Hansen,
     J. Chem. Phys., 2023, just accepted.
   
   for PTB refer to:
   * S. Grimme, M. Mueller, A. Hansen, J. Chem. Phys., 2023, 158, 124111.
     DOI: 10.1063/5.0137838
   
   with help from (in alphabetical order)
   P. Atkinson, C. Bannwarth, F. Bohle, G. Brandenburg, E. Caldeweyher
   M. Checinski, S. Dohm, S. Ehlert, S. Ehrlich, I. Gerasimov, C. Hölzer
   A. Katbashev, J. Kohn, J. Koopman, C. Lavigne, S. Lehtola, F. März, M. Müller,
   F. Musil, H. Neugebauer, J. Pisarek, C. Plett, P. Pracht, F. Pultar,
   J. Seibert, P. Shushkov, S. Spicher, M. Stahn, M. Steiner, T. Strunk,
   J. Stückrath, T. Rose, and J. Unsleber
   
 * started run on 2026/09/28 at 23:19:01.497     
   ID    Z sym.   atoms
    1    6 C      1, 2, 5-7, 10
    2    8 O      3, 8
    3    7 N      4, 9
    4    1 H      11-22

           -------------------------------------------------
          |                Calculation Setup                |
           -------------------------------------------------

          program call               : /app1/ebapps/arches/flat-avx2/software/ORCA/6.1.0-gompi-2023b-avx2/bin/otool_xtb o01-xtb-opt-freq_XTB.xyz --grad -c 0 -u 0 -P 8 --namespace o01-xtb-opt-freq --input o01-xtb-opt-freq_XTB.input.tmp --alpb WATER --acc 0.200000
          hostname                   : IN-006
          calculation namespace      : o01-xtb-opt-freq
          coordinate file            : o01-xtb-opt-freq_XTB.xyz
          omp threads                :                     8


           -------------------------------------------------
          |                 G F N 2 - x T B                 |
           -------------------------------------------------

        Reference                      10.1021/acs.jctc.8b01176
      * Hamiltonian:
        H0-scaling (s, p, d)           1.850000    2.230000    2.230000
        zeta-weighting                 0.500000
      * Dispersion:
        s8                             2.700000
        a1                             0.520000
        a2                             5.000000
        s9                             5.000000
      * Repulsion:
        kExp                           1.500000    1.000000
        rExp                           1.000000
      * Coulomb:
        alpha                          2.000000
        third order                    shell-resolved
        anisotropic                    true
        a3                             3.000000
        a5                             4.000000
        cn-shift                       1.200000
        cn-exp                         4.000000
        max-rad                        5.000000

      * Solvation model:               ALPB
        Solvent                        WATER
        Parameter file                 internal GFN2-xTB/ALPB
        Dielectric constant                8.0200E+01
        Reference state                gsolv [1 M gas/solution]
        Free energy shift                  1.0808E-03 Eh       6.7819E-01 kcal/mol
        Temperature                        2.9815E+02 K
        Density                            1.0000E+00 kg/L
        Solvent mass                       1.8000E+01 g/mol
        Interaction kernel             P16
        Born radius scaling (c1)           1.4744E+00
        Born radii integrator          GBOBC
        Born offset                        0.0000E+00 a0       0.0000E+00 AA
        H-bond correction              true
        Ion screening                  false
        Surface tension                    1.0000E-05 Eh       1.5569E+01 dyn/cm
        Grid points                               230 per atom

          ...................................................
          :                      SETUP                      :
          :.................................................:
          :  # basis functions                  52          :
          :  # atomic orbitals                  52          :
          :  # shells                           32          :
          :  # electrons                        58          :
          :  max. iterations                   250          :
          :  Hamiltonian                  GFN2-xTB          :
          :  restarted?                      false          :
          :  GBSA solvation                   true          :
          :  PC potential                    false          :
          :  electronic temp.          300.0000000     K    :
          :  accuracy                    0.2000000          :
          :  -> integral cutoff          0.3198970E+02      :
          :  -> integral neglect         0.2000000E-08      :
          :  -> SCF convergence          0.2000000E-06 Eh   :
          :  -> wf. convergence          0.2000000E-04 e    :
          :  Broyden damping             0.4000000          :
          :  net charge                          0          :
          :  unpaired electrons                  0          :
          ...................................................

 iter      E             dE          RMSdq      gap      omega  full diag
   1    -33.2672364 -0.332672E+02  0.415E+00    4.25       0.0  T
   2    -33.3478108 -0.805743E-01  0.215E+00    4.34       1.0  T
   3    -33.3489744 -0.116366E-02  0.102E+00    4.36       1.0  T
   4    -33.3492653 -0.290903E-03  0.155E-01    4.31       1.0  T
   5    -33.3494635 -0.198155E-03  0.797E-02    4.33       1.0  T
   6    -33.3494713 -0.783632E-05  0.303E-02    4.33       1.0  T
   7    -33.3494727 -0.135520E-05  0.637E-03    4.33       3.3  T
   8    -33.3494728 -0.122770E-06  0.379E-03    4.33       5.6  T
   9    -33.3494728 -0.292924E-07  0.102E-03    4.33      20.9  T
  10    -33.3494728 -0.361589E-08  0.456E-04    4.33      46.8  T
  11    -33.3494728 -0.790330E-09  0.133E-04    4.33     159.9  T
  12    -33.3494728 -0.702229E-10  0.607E-05    4.33     351.5  T

   *** convergence criteria satisfied after 12 iterations ***

         #    Occupation            Energy/Eh            Energy/eV
      -------------------------------------------------------------
         1        2.0000           -0.7114663             -19.3600
       ...           ...                  ...                  ...
        23        2.0000           -0.4648468             -12.6491
        24        2.0000           -0.4611894             -12.5496
        25        2.0000           -0.4543855             -12.3645
        26        2.0000           -0.4344362             -11.8216
        27        2.0000           -0.4101625             -11.1611
        28        2.0000           -0.4020215             -10.9396
        29        2.0000           -0.3918925             -10.6639 (HOMO)
        30                         -0.2328675              -6.3366 (LUMO)
        31                         -0.2217778              -6.0349
        32                         -0.0070264              -0.1912
        33                         -0.0003192              -0.0087
        34                          0.0752770               2.0484
       ...                                ...                  ...
        52                          0.5865891              15.9619
      -------------------------------------------------------------
                  HL-Gap            0.1590249 Eh            4.3273 eV
             Fermi-level           -0.3123800 Eh           -8.5003 eV

 SCC (total)                   0 d,  0 h,  0 min,  0.060 sec
 SCC setup                      ...        0 min,  0.011 sec ( 17.740%)
 Dispersion                     ...        0 min,  0.001 sec (  1.745%)
 classical contributions        ...        0 min,  0.000 sec (  0.048%)
 integral evaluation            ...        0 min,  0.003 sec (  5.746%)
 iterations                     ...        0 min,  0.040 sec ( 67.121%)
 molecular gradient             ...        0 min,  0.003 sec (  5.729%)
 printout                       ...        0 min,  0.001 sec (  1.800%)

         :::::::::::::::::::::::::::::::::::::::::::::::::::::
         ::                     SUMMARY                     ::
         :::::::::::::::::::::::::::::::::::::::::::::::::::::
         :: total energy             -32.984131446034 Eh    ::
         :: total w/o Gsasa/hb       -32.981903477818 Eh    ::
         :: gradient norm              0.061281270649 Eh/a0 ::
         :: HOMO-LUMO gap              4.327288896690 eV    ::
         ::.................................................::
         :: SCC energy               -33.349369214432 Eh    ::
         :: -> isotropic ES            0.100165638581 Eh    ::
         :: -> anisotropic ES          0.002680978852 Eh    ::
         :: -> anisotropic XC          0.012025160028 Eh    ::
         :: -> dispersion             -0.015376094834 Eh    ::
         :: -> Gsolv                  -0.019545993590 Eh    ::
         ::    -> Gelec               -0.017318025374 Eh    ::
         ::    -> Gsasa                0.001591168697 Eh    ::
         ::    -> Ghb                 -0.004899896611 Eh    ::
         ::    -> Gshift               0.001080759698 Eh    ::
         :: repulsion energy           0.365237768398 Eh    ::
         :: add. restraining           0.000000000000 Eh    ::
         :: total charge               0.000000000000 e     ::
         :::::::::::::::::::::::::::::::::::::::::::::::::::::


Property printout bound to 'properties.out'

           -------------------------------------------------
          | TOTAL ENERGY              -32.984131446034 Eh   |
          | GRADIENT NORM               0.061281270649 Eh/α |
          | HOMO-LUMO GAP               4.327288896690 eV   |
           -------------------------------------------------

------------------------------------------------------------------------
 * finished run on 2026/09/28 at 23:19:01.696     
------------------------------------------------------------------------
 total:
 * wall-time:     0 d,  0 h,  0 min,  0.198 sec
 *  cpu-time:     0 d,  0 h,  0 min,  1.053 sec
 * ratio c/w:     5.324 speedup
 SCF:
 * wall-time:     0 d,  0 h,  0 min,  0.063 sec
 *  cpu-time:     0 d,  0 h,  0 min,  0.321 sec
 * ratio c/w:     5.079 speedup


-------------------------   --------------------
FINAL SINGLE POINT ENERGY       -32.984131446030
-------------------------   --------------------


-------------
DIPOLE MOMENT
-------------
                                X             Y             Z
Total Dipole Moment    :      0.99900       0.61500       1.20500
                        -----------------------------------------
Magnitude (a.u.)       :      1.68174
Magnitude (Debye)      :      4.27464


------------------
CARTESIAN GRADIENT
------------------

   1   C   :   -0.006546456    0.004114426   -0.004320241
   2   C   :    0.008637024    0.013726341   -0.011772608
   3   O   :   -0.001969199    0.004490881    0.001673090
   4   N   :   -0.000155700   -0.017648655    0.013769776
   5   C   :    0.003001240   -0.000455835   -0.008259771
   6   C   :   -0.003119895    0.007787135   -0.004031716
   7   C   :    0.009551643   -0.020888883    0.013516780
   8   O   :   -0.007239783   -0.007527284   -0.002572349
   9   N   :   -0.017125367    0.031963609   -0.009081485
  10   C   :    0.001738960   -0.004290967    0.002715958
  11   H   :   -0.003370194    0.001248102    0.003041115
  12   H   :    0.002707573   -0.002817647    0.003089815
  13   H   :    0.005644353   -0.000899674   -0.001207594
  14   H   :   -0.002542982    0.001905410    0.004091212
  15   H   :   -0.000577715   -0.003859671   -0.002206486
  16   H   :   -0.001125838   -0.005692728   -0.003300130
  17   H   :    0.000564960   -0.002678977    0.005156384
  18   H   :    0.004651511   -0.003231902    0.001031495
  19   H   :    0.004531310    0.002472359   -0.002979520
  20   H   :    0.000986515    0.003732945    0.000010879
  21   H   :   -0.002943109    0.000104824    0.002594887
  22   H   :    0.004701150   -0.001553808   -0.000959491

Difference to translation invariance:
           :   -0.0000000000    0.0000000000   -0.0000000000

Difference to rotation invariance:
           :   -0.0002995670   -0.0000128286   -0.0000350646

Norm of the Cartesian gradient     ...    0.0612812706
RMS gradient                       ...    0.0075432030
MAX gradient                       ...    0.0319636090
------------------------------------------------------------------------------
                         ORCA GEOMETRY RELAXATION STEP
------------------------------------------------------------------------------

Reading the OPT-File                    .... done
Getting information on internals        .... done
Copying old internal coords+grads       .... done
Making the new internal coordinates     .... (2022 redundants) done
Validating the new internal coordinates .... (2022 redundants) done
Calculating the B-matrix                .... done
Calculating the G,G- and P matrices     .... done
Transforming gradient to internals      .... done
Projecting the internal gradient        .... done
Number of atoms                         ....  22
Number of internal coordinates          ....  92
Current Energy                          ....   -32.984131446 Eh
Current gradient norm                   ....     0.061281271 Eh/bohr
Maximum allowed component of the step   ....  0.300
Current trust radius                    ....  0.300
Evaluating the initial hessian          ....  (Almloef) done
Projecting the Hessian                  .... done
Forming the augmented Hessian           .... done
Diagonalizing the augmented Hessian     .... done
Last element of RFO vector              ....  0.966098706
Lowest eigenvalues of augmented Hessian:
 -0.006406205  0.010133297  0.011622927  0.012531188  0.012777462
Length of the computed step             ....  0.267232513
The final length of the internal step   ....  0.267232513
Converting the step to Cartesian space:
 Initial RMS(Int)=    0.0278609154
Transforming coordinates:
 Iter   0:  RMS(Cart)=    0.0432264356 RMS(Int)=    0.6508577138
 Iter   5:  RMS(Cart)=    0.0000000101 RMS(Int)=    0.0000000063
done
Storing new coordinates                 .... done

                                .--------------------.
          ----------------------|Geometry convergence|-------------------------
          Item                value                   Tolerance       Converged
          ---------------------------------------------------------------------
          RMS gradient        0.0051793883            0.0001000000      NO
          MAX gradient        0.0342744345            0.0003000000      NO
          RMS step            0.0278609154            0.0020000000      NO
          MAX step            0.0846194478            0.0040000000      NO
          -------------------------------------------------------------------------
          ........................................................
          Max(Bonds)      0.0310      Max(Angles)    1.43
          Max(Dihed)        4.85      Max(Improp)    0.00
          ---------------------------------------------------------------------

The optimization has not yet converged - more geometry cycles are needed


    ---------------------------------------------------------------------------
                         Redundant Internal Coordinates
                            (Angstroem and degrees)

        Definition                    Value    dE/dq     Step     New-Value
    ----------------------------------------------------------------------------
     1. B(C   1,C   0)                1.5039  0.000534 -0.0007    1.5032   
     2. B(O   2,C   1)                1.2277  0.000710 -0.0003    1.2274   
     3. B(N   3,C   1)                1.3734  0.022153 -0.0198    1.3537   
     4. B(C   4,N   3)                1.4651  0.008844 -0.0114    1.4538   
     5. B(C   5,C   4)                1.5239  0.003572 -0.0049    1.5191   
     6. B(C   6,C   4)                1.5483  0.006492 -0.0105    1.5377   
     7. B(O   7,C   6)                1.2285  0.009909 -0.0051    1.2234   
     8. B(N   8,C   6)                1.3812  0.034274 -0.0310    1.3501   
     9. B(C   9,N   8)                1.4386 -0.005373  0.0060    1.4446   
    10. B(H  10,C   0)                1.0930  0.004202 -0.0061    1.0869   
    11. B(H  11,C   0)                1.0937  0.004849 -0.0071    1.0866   
    12. B(H  12,C   0)                1.0935  0.004455 -0.0065    1.0869   
    13. B(H  13,N   3)                1.0125  0.003772 -0.0046    1.0079   
    14. B(H  14,C   4)                1.0971  0.001187 -0.0018    1.0954   
    15. B(H  15,C   5)                1.0951  0.006075 -0.0089    1.0862   
    16. B(H  16,C   5)                1.0960  0.005155 -0.0076    1.0884   
    17. B(H  17,C   5)                1.0953  0.005191 -0.0076    1.0877   
    18. B(H  18,O   2)                1.9924  0.000116  0.0156    2.0080   
    19. B(H  18,N   8)                1.0207  0.005934 -0.0068    1.0140   
    20. B(H  19,C   9)                1.0923  0.003708 -0.0054    1.0869   
    21. B(H  20,C   9)                1.0932  0.003502 -0.0051    1.0881   
    22. B(H  21,C   9)                1.0931 -0.000196  0.0003    1.0934   
    23. A(H  11,C   0,H  12)          108.21 -0.002126    0.67    108.88   
    24. A(C   1,C   0,H  11)          111.38 -0.000550    0.23    111.62   
    25. A(C   1,C   0,H  12)          109.14 -0.000145    0.00    109.14   
    26. A(C   1,C   0,H  10)          109.15  0.000764   -0.24    108.90   
    27. A(H  10,C   0,H  12)          109.79  0.002577   -0.82    108.97   
    28. A(H  10,C   0,H  11)          109.15 -0.000476    0.15    109.30   
    29. A(O   2,C   1,N   3)          123.00  0.004983   -0.65    122.35   
    30. A(C   0,C   1,N   3)          114.43 -0.002349    0.41    114.84   
    31. A(C   0,C   1,O   2)          122.53 -0.002699    0.41    122.94   
    32. A(C   4,N   3,H  13)          116.87  0.002653   -0.02    116.85   
    33. A(C   1,N   3,C   4)          121.77 -0.003171    0.55    122.32   
    34. A(C   1,N   3,H  13)          117.78 -0.000227    0.44    118.23   
    35. A(C   5,C   4,C   6)          111.26  0.002617   -0.20    111.06   
    36. A(N   3,C   4,C   5)          109.82  0.001269   -0.12    109.70   
    37. A(N   3,C   4,C   6)          111.06 -0.004206    0.62    111.68   
    38. A(C   6,C   4,H  14)          107.13  0.000282   -0.10    107.03   
    39. A(C   5,C   4,H  14)          108.80 -0.002769    0.64    109.44   
    40. A(N   3,C   4,H  14)          108.67  0.002805   -0.85    107.81   
    41. A(H  16,C   5,H  17)          107.66 -0.003620    0.80    108.46   
    42. A(C   4,C   5,H  17)          110.81  0.001991   -0.25    110.56   
    43. A(H  15,C   5,H  16)          107.77 -0.001638    0.04    107.82   
    44. A(C   4,C   5,H  16)          111.29  0.001531   -0.35    110.94   
    45. A(C   4,C   5,H  15)          111.03  0.003355   -0.66    110.37   
    46. A(H  15,C   5,H  17)          108.13 -0.002014    0.49    108.62   
    47. A(O   7,C   6,N   8)          122.78 -0.000376    0.26    123.03   
    48. A(C   4,C   6,N   8)          113.94  0.000507   -0.16    113.78   
    49. A(C   4,C   6,O   7)          123.20 -0.000260    0.25    123.44   
    50. A(C   9,N   8,H  18)          118.67  0.000418    0.11    118.78   
    51. A(C   6,N   8,H  18)          117.00 -0.001052    0.24    117.24   
    52. A(C   6,N   8,C   9)          121.64  0.000328    0.10    121.74   
    53. A(N   8,C   9,H  19)          108.57 -0.001095    0.21    108.78   
    54. A(H  20,C   9,H  21)          109.43  0.002859   -0.55    108.88   
    55. A(H  19,C   9,H  21)          109.82  0.002096   -0.15    109.67   
    56. A(N   8,C   9,H  21)          108.66 -0.007875    1.43    110.09   
    57. A(H  19,C   9,H  20)          110.01 -0.000208   -0.15    109.86   
    58. A(N   8,C   9,H  20)          110.34  0.004113   -0.77    109.57   
    59. D(O   2,C   1,C   0,H  10)     75.73 -0.000025    2.20     77.93   
    60. D(O   2,C   1,C   0,H  11)   -163.68 -0.000464    2.37   -161.31   
    61. D(N   3,C   1,C   0,H  11)     18.55  0.001234   -2.18     16.36   
    62. D(N   3,C   1,C   0,H  10)   -102.04  0.001673   -2.36   -104.40   
    63. D(O   2,C   1,C   0,H  12)    -44.26 -0.003534    3.35    -40.92   
    64. D(H  13,N   3,C   1,C   0)     19.47  0.000767   -0.24     19.23   
    65. D(C   4,N   3,C   1,C   0)    177.50 -0.000827    2.61    180.10   
    66. D(H  13,N   3,C   1,O   2)   -158.29  0.002668   -4.85   -163.14   
    67. D(C   4,N   3,C   1,O   2)     -0.26  0.001075   -2.00     -2.27   
    68. D(H  14,C   4,N   3,C   1)     34.78  0.001136   -0.38     34.40   
    69. D(C   6,C   4,N   3,H  13)     75.39 -0.000637    2.82     78.21   
    70. D(C   6,C   4,N   3,C   1)    -82.82  0.001527   -0.10    -82.92   
    71. D(C   5,C   4,N   3,H  13)    -48.10 -0.001966    2.73    -45.37   
    72. D(C   5,C   4,N   3,C   1)    153.69  0.000197   -0.19    153.50   
    73. D(H  15,C   5,C   4,N   3)   -178.03 -0.001129    0.16   -177.87   
    74. D(H  16,C   5,C   4,H  14)   -179.26  0.000154    0.06   -179.20   
    75. D(H  16,C   5,C   4,C   6)    -61.46  0.000330    0.21    -61.24   
    76. D(H  16,C   5,C   4,N   3)     61.92 -0.002339    0.78     62.71   
    77. D(H  15,C   5,C   4,H  14)    -59.20  0.001365   -0.56    -59.77   
    78. D(H  15,C   5,C   4,C   6)     58.60  0.001540   -0.41     58.19   
    79. D(N   8,C   6,C   4,C   5)    179.16  0.001562   -2.66    176.50   
    80. D(N   8,C   6,C   4,N   3)     56.49  0.001064   -2.81     53.69   
    81. D(O   7,C   6,C   4,H  14)    114.64 -0.002610    4.38    119.02   
    82. D(O   7,C   6,C   4,C   5)     -4.17 -0.000905    3.78     -0.39   
    83. D(O   7,C   6,C   4,N   3)   -126.83 -0.001403    3.64   -123.20   
    84. D(H  18,N   8,C   6,O   7)   -165.26  0.002091   -4.79   -170.06   
    85. D(H  18,N   8,C   6,C   4)     11.42 -0.000361    1.62     13.04   
    86. D(C   9,N   8,C   6,O   7)     -4.11  0.001121   -3.27     -7.38   
    87. D(C   9,N   8,C   6,C   4)    172.58 -0.001331    3.14    175.73   
    88. D(H  19,C   9,N   8,H  18)    -36.40  0.000793   -0.30    -36.70   
    89. D(H  19,C   9,N   8,C   6)    162.75  0.002045   -1.88    160.87   
    90. D(H  21,C   9,N   8,C   6)    -77.85 -0.000601   -1.11    -78.97   
    91. D(H  20,C   9,N   8,H  18)   -157.03 -0.000771    0.21   -156.81   
    92. D(H  20,C   9,N   8,C   6)     42.12  0.000482   -1.36     40.76   
    ----------------------------------------------------------------------------

Geometry step timings:
Preparation and reading OPT file:      0.001 s ( 3.771 %)
Internal coordinates            :      0.000 s ( 0.212 %)
B/P matrices and projection     :      0.002 s ( 7.747 %)
Hessian update/contruction      :      0.016 s (48.975 %)
Making the step                 :      0.003 s (10.641 %)
Converting the step to Cartesian:      0.000 s ( 0.803 %)
Storing new data                :      0.004 s (13.998 %)
Checking convergence            :      0.000 s ( 0.255 %)
Final printing                  :      0.004 s (13.590 %)
Total time                      :      0.032 s

Time for energy+gradient        :      0.287 s
Time for complete geometry iter :      0.356 s

         *************************************************************
         *                GEOMETRY OPTIMIZATION CYCLE   2            *
         *************************************************************
---------------------------------
CARTESIAN COORDINATES (ANGSTROEM)
---------------------------------
  C     2.188452    1.766983    1.157628
  C     1.457564    1.027759    0.071827
  O     1.279634    1.495089   -1.049089
  N     1.051361   -0.218874    0.408597
  C     0.332151   -1.078469   -0.517360
  C     0.578856   -2.534446   -0.161192
  C    -1.172532   -0.761534   -0.535385
  O    -2.037528   -1.593398   -0.297733
  N    -1.450170    0.538180   -0.772984
  C    -2.807557    1.010981   -0.917663
  H     1.523009    2.512052    1.585791
  H     2.526807    1.094910    1.941528
  H     3.051526    2.269054    0.728118
  H     0.987934   -0.450978    1.387389
  H     0.714026   -0.879732   -1.524590
  H     0.076616   -3.187199   -0.869377
  H     0.195287   -2.762350    0.831531
  H     1.643438   -2.756784   -0.178561
  H    -0.692031    1.120350   -1.111062
  H    -2.821789    2.086530   -0.761610
  H    -3.443932    0.522315   -0.182650
  H    -3.181114    0.779561   -1.918893

----------------------------
CARTESIAN COORDINATES (A.U.)
----------------------------
  NO LB    ZA    FRAG    MASS        X           Y           Z
   0 C   6.0000    0    12.011    4.135575    3.339113    2.187600
   1 C   6.0000    0    12.011    2.754396    1.942184    0.135733
   2 O   8.0000    0    15.999    2.418159    2.825308   -1.982491
   3 N   7.0000    0    14.007    1.986784   -0.413611    0.772136
   4 C   6.0000    0    12.011    0.627674   -2.038011   -0.977668
   5 C   6.0000    0    12.011    1.093879   -4.789409   -0.304608
   6 C   6.0000    0    12.011   -2.215765   -1.439091   -1.011731
   7 O   8.0000    0    15.999   -3.850371   -3.011085   -0.562633
   8 N   7.0000    0    14.007   -2.740425    1.017013   -1.460728
   9 C   6.0000    0    12.011   -5.305515    1.910478   -1.734131
  10 H   1.0000    0     1.008    2.878069    4.747090    2.996712
  11 H   1.0000    0     1.008    4.774973    2.069080    3.668956
  12 H   1.0000    0     1.008    5.766548    4.287891    1.375945
  13 H   1.0000    0     1.008    1.866925   -0.852224    2.621786
  14 H   1.0000    0     1.008    1.349314   -1.662452   -2.881057
  15 H   1.0000    0     1.008    0.144784   -6.022934   -1.642885
  16 H   1.0000    0     1.008    0.369040   -5.220085    1.571367
  17 H   1.0000    0     1.008    3.105647   -5.209567   -0.337432
  18 H   1.0000    0     1.008   -1.307749    2.117155   -2.099603
  19 H   1.0000    0     1.008   -5.332409    3.942970   -1.439235
  20 H   1.0000    0     1.008   -6.508089    0.987031   -0.345158
  21 H   1.0000    0     1.008   -6.011435    1.473156   -3.626182

      -----------------------------------------------------------      
     |                   =====================                   |     
     |                           x T B                           |     
     |                   =====================                   |     
     |                         S. Grimme                         |     
     |          Mulliken Center for Theoretical Chemistry        |     
     |                    University of Bonn                     |     
      -----------------------------------------------------------      

   * xtb version 6.7.1 (edcfbbe) compiled by 'albert@albert-system' on 2024-07-22

   xtb is free software: you can redistribute it and/or modify it under
   the terms of the GNU Lesser General Public License as published by
   the Free Software Foundation, either version 3 of the License, or
   (at your option) any later version.
   
   xtb is distributed in the hope that it will be useful,
   but WITHOUT ANY WARRANTY; without even the implied warranty of
   MERCHANTABILITY or FITNESS FOR A PARTICULAR PURPOSE.  See the
   GNU Lesser General Public License for more details.
   
   Cite this work as:
   * C. Bannwarth, E. Caldeweyher, S. Ehlert, A. Hansen, P. Pracht,
     J. Seibert, S. Spicher, S. Grimme, WIREs Comput. Mol. Sci., 2020, 11,
     e01493. DOI: 10.1002/wcms.1493
   
   for GFN2-xTB:
   * C. Bannwarth, S. Ehlert and S. Grimme., J. Chem. Theory Comput., 2019,
     15, 1652-1671. DOI: 10.1021/acs.jctc.8b01176
   for GFN1-xTB:
   * S. Grimme, C. Bannwarth, P. Shushkov, J. Chem. Theory Comput., 2017,
     13, 1989-2009. DOI: 10.1021/acs.jctc.7b00118
   for GFN0-xTB:
   * P. Pracht, E. Caldeweyher, S. Ehlert, S. Grimme, ChemRxiv, 2019, preprint.
     DOI: 10.26434/chemrxiv.8326202.v1
   for GFN-FF:
   * S. Spicher and S. Grimme, Angew. Chem. Int. Ed., 2020, 59, 15665-15673.
     DOI: 10.1002/anie.202004239
   
   for ALPB and GBSA implicit solvation:
   * S. Ehlert, M. Stahn, S. Spicher, S. Grimme, J. Chem. Theory Comput.,
     2021, 17, 4250-4261. DOI: 10.1021/acs.jctc.1c00471
   
   for ddCOSMO and CPCM-X implicit solvation:
   * M. Stahn, S. Ehlert, S. Grimme, J. Phys. Chem. A,
     2023, XX, XXXX-XXXX. DOI: 10.1021/acs.jpca.3c04382
   
   for DFT-D4:
   * E. Caldeweyher, C. Bannwarth and S. Grimme, J. Chem. Phys., 2017,
     147, 034112. DOI: 10.1063/1.4993215
   * E. Caldeweyher, S. Ehlert, A. Hansen, H. Neugebauer, S. Spicher,
     C. Bannwarth and S. Grimme, J. Chem. Phys., 2019, 150, 154122.
     DOI: 10.1063/1.5090222
   * E. Caldeweyher, J.-M. Mewes, S. Ehlert and S. Grimme, Phys. Chem. Chem. Phys.
     2020, 22, 8499-8512. DOI: 10.1039/D0CP00502A
   
   for sTDA-xTB:
   * S. Grimme and C. Bannwarth, J. Chem. Phys., 2016, 145, 054103.
     DOI: 10.1063/1.4959605
   
   in the mass-spec context:
   * V. Asgeirsson, C. Bauer and S. Grimme, Chem. Sci., 2017, 8, 4879.
     DOI: 10.1039/c7sc00601b
   * J. Koopman and S. Grimme, ACS Omega 2019, 4, 12, 15120-15133.
     DOI: 10.1021/acsomega.9b02011
   
   for metadynamics refer to:
   * S. Grimme, J. Chem. Theory Comput., 2019, 155, 2847-2862
     DOI: 10.1021/acs.jctc.9b00143
   
   for SPH calculations refer to:
   * S. Spicher and S. Grimme, J. Chem. Theory Comput., 2021, 17, 1701-1714
     DOI: 10.1021/acs.jctc.0c01306
   
   for ONIOM refer to:
   * C. Plett, A. Katbashev, S. Ehlert, S. Grimme, M. Bursch,
     Phys. Chem. Chem. Phys., 2023, 25, 17860-17868. DOI: 10.1039/D3CP02178E
   
   for DIPRO refer to:
   * J. Kohn, N. Gildemeister, S. Grimme, D. Fazzi, A. Hansen,
     J. Chem. Phys., 2023, just accepted.
   
   for PTB refer to:
   * S. Grimme, M. Mueller, A. Hansen, J. Chem. Phys., 2023, 158, 124111.
     DOI: 10.1063/5.0137838
   
   with help from (in alphabetical order)
   P. Atkinson, C. Bannwarth, F. Bohle, G. Brandenburg, E. Caldeweyher
   M. Checinski, S. Dohm, S. Ehlert, S. Ehrlich, I. Gerasimov, C. Hölzer
   A. Katbashev, J. Kohn, J. Koopman, C. Lavigne, S. Lehtola, F. März, M. Müller,
   F. Musil, H. Neugebauer, J. Pisarek, C. Plett, P. Pracht, F. Pultar,
   J. Seibert, P. Shushkov, S. Spicher, M. Stahn, M. Steiner, T. Strunk,
   J. Stückrath, T. Rose, and J. Unsleber
   
 * started run on 2026/09/28 at 23:19:01.844     
   ID    Z sym.   atoms
    1    6 C      1, 2, 5-7, 10
    2    8 O      3, 8
    3    7 N      4, 9
    4    1 H      11-22

           -------------------------------------------------
          |                Calculation Setup                |
           -------------------------------------------------

          program call               : /app1/ebapps/arches/flat-avx2/software/ORCA/6.1.0-gompi-2023b-avx2/bin/otool_xtb o01-xtb-opt-freq_XTB.xyz --grad -c 0 -u 0 -P 8 --namespace o01-xtb-opt-freq --input o01-xtb-opt-freq_XTB.input.tmp --alpb WATER --acc 0.200000
          hostname                   : IN-006
          calculation namespace      : o01-xtb-opt-freq
          coordinate file            : o01-xtb-opt-freq_XTB.xyz
          omp threads                :                     8


           -------------------------------------------------
          |                 G F N 2 - x T B                 |
           -------------------------------------------------

        Reference                      10.1021/acs.jctc.8b01176
      * Hamiltonian:
        H0-scaling (s, p, d)           1.850000    2.230000    2.230000
        zeta-weighting                 0.500000
      * Dispersion:
        s8                             2.700000
        a1                             0.520000
        a2                             5.000000
        s9                             5.000000
      * Repulsion:
        kExp                           1.500000    1.000000
        rExp                           1.000000
      * Coulomb:
        alpha                          2.000000
        third order                    shell-resolved
        anisotropic                    true
        a3                             3.000000
        a5                             4.000000
        cn-shift                       1.200000
        cn-exp                         4.000000
        max-rad                        5.000000

      * Solvation model:               ALPB
        Solvent                        WATER
        Parameter file                 internal GFN2-xTB/ALPB
        Dielectric constant                8.0200E+01
        Reference state                gsolv [1 M gas/solution]
        Free energy shift                  1.0808E-03 Eh       6.7819E-01 kcal/mol
        Temperature                        2.9815E+02 K
        Density                            1.0000E+00 kg/L
        Solvent mass                       1.8000E+01 g/mol
        Interaction kernel             P16
        Born radius scaling (c1)           1.4744E+00
        Born radii integrator          GBOBC
        Born offset                        0.0000E+00 a0       0.0000E+00 AA
        H-bond correction              true
        Ion screening                  false
        Surface tension                    1.0000E-05 Eh       1.5569E+01 dyn/cm
        Grid points                               230 per atom
q/qsh data taken from xtbrestart
CAMM data taken from xtbrestart

          ...................................................
          :                      SETUP                      :
          :.................................................:
          :  # basis functions                  52          :
          :  # atomic orbitals                  52          :
          :  # shells                           32          :
          :  # electrons                        58          :
          :  max. iterations                   250          :
          :  Hamiltonian                  GFN2-xTB          :
          :  restarted?                       true          :
          :  GBSA solvation                   true          :
          :  PC potential                    false          :
          :  electronic temp.          300.0000000     K    :
          :  accuracy                    0.2000000          :
          :  -> integral cutoff          0.3198970E+02      :
          :  -> integral neglect         0.2000000E-08      :
          :  -> SCF convergence          0.2000000E-06 Eh   :
          :  -> wf. convergence          0.2000000E-04 e    :
          :  Broyden damping             0.4000000          :
          :  net charge                          0          :
          :  unpaired electrons                  0          :
          ...................................................

 iter      E             dE          RMSdq      gap      omega  full diag
   1    -33.3730841 -0.333731E+02  0.218E-01    4.47       0.0  T
   2    -33.3733123 -0.228218E-03  0.121E-01    4.47       1.0  T
   3    -33.3733176 -0.528438E-05  0.605E-02    4.47       1.0  T
   4    -33.3733188 -0.121291E-05  0.993E-03    4.47       2.1  T
   5    -33.3733198 -0.102220E-05  0.406E-03    4.47       5.3  T
   6    -33.3733199 -0.204202E-07  0.884E-04    4.47      24.1  T
   7    -33.3733199 -0.133161E-08  0.414E-04    4.47      51.5  T
   8    -33.3733199 -0.336158E-09  0.115E-04    4.47     185.1  T
   9    -33.3733199 -0.295017E-10  0.523E-05    4.47     407.8  T

   *** convergence criteria satisfied after 9 iterations ***

         #    Occupation            Energy/Eh            Energy/eV
      -------------------------------------------------------------
         1        2.0000           -0.7115702             -19.3628
       ...           ...                  ...                  ...
        23        2.0000           -0.4652974             -12.6614
        24        2.0000           -0.4620320             -12.5725
        25        2.0000           -0.4547188             -12.3735
        26        2.0000           -0.4344613             -11.8223
        27        2.0000           -0.4092018             -11.1349
        28        2.0000           -0.4048421             -11.0163
        29        2.0000           -0.3914816             -10.6528 (HOMO)
        30                         -0.2271791              -6.1819 (LUMO)
        31                         -0.2152856              -5.8582
        32                          0.0046696               0.1271
        33                          0.0076740               0.2088
        34                          0.0861091               2.3431
       ...                                ...                  ...
        52                          0.6063495              16.4996
      -------------------------------------------------------------
                  HL-Gap            0.1643026 Eh            4.4709 eV
             Fermi-level           -0.3093304 Eh           -8.4173 eV

 SCC (total)                   0 d,  0 h,  0 min,  0.011 sec
 SCC setup                      ...        0 min,  0.000 sec (  3.722%)
 Dispersion                     ...        0 min,  0.000 sec (  1.436%)
 classical contributions        ...        0 min,  0.000 sec (  0.196%)
 integral evaluation            ...        0 min,  0.001 sec (  6.621%)
 iterations                     ...        0 min,  0.008 sec ( 71.453%)
 molecular gradient             ...        0 min,  0.002 sec ( 15.237%)
 printout                       ...        0 min,  0.000 sec (  1.118%)

         :::::::::::::::::::::::::::::::::::::::::::::::::::::
         ::                     SUMMARY                     ::
         :::::::::::::::::::::::::::::::::::::::::::::::::::::
         :: total energy             -32.987927395979 Eh    ::
         :: total w/o Gsasa/hb       -32.985687993254 Eh    ::
         :: gradient norm              0.026894910941 Eh/a0 ::
         :: HOMO-LUMO gap              4.470900016025 eV    ::
         ::.................................................::
         :: SCC energy               -33.373216742437 Eh    ::
         :: -> isotropic ES            0.102505257245 Eh    ::
         :: -> anisotropic ES          0.002400066141 Eh    ::
         :: -> anisotropic XC          0.011039967141 Eh    ::
         :: -> dispersion             -0.015470317610 Eh    ::
         :: -> Gsolv                  -0.019982671206 Eh    ::
         ::    -> Gelec               -0.017743268481 Eh    ::
         ::    -> Gsasa                0.001634747041 Eh    ::
         ::    -> Ghb                 -0.004954909464 Eh    ::
         ::    -> Gshift               0.001080759698 Eh    ::
         :: repulsion energy           0.385289346458 Eh    ::
         :: add. restraining           0.000000000000 Eh    ::
         :: total charge               0.000000000000 e     ::
         :::::::::::::::::::::::::::::::::::::::::::::::::::::


Property printout bound to 'properties.out'

           -------------------------------------------------
          | TOTAL ENERGY              -32.987927395979 Eh   |
          | GRADIENT NORM               0.026894910941 Eh/α |
          | HOMO-LUMO GAP               4.470900016025 eV   |
           -------------------------------------------------

------------------------------------------------------------------------
 * finished run on 2026/09/28 at 23:19:01.904     
------------------------------------------------------------------------
 total:
 * wall-time:     0 d,  0 h,  0 min,  0.059 sec
 *  cpu-time:     0 d,  0 h,  0 min,  0.384 sec
 * ratio c/w:     6.540 speedup
 SCF:
 * wall-time:     0 d,  0 h,  0 min,  0.011 sec
 *  cpu-time:     0 d,  0 h,  0 min,  0.086 sec
 * ratio c/w:     7.908 speedup


-------------------------   --------------------
FINAL SINGLE POINT ENERGY       -32.987927395980
-------------------------   --------------------


-------------
DIPOLE MOMENT
-------------
                                X             Y             Z
Total Dipole Moment    :      0.92100       0.64400       1.23000
                        -----------------------------------------
Magnitude (a.u.)       :      1.66610
Magnitude (Debye)      :      4.23488


------------------
CARTESIAN GRADIENT
------------------

   1   C   :   -0.001877002    0.002088801   -0.002271209
   2   C   :   -0.002645788    0.008772640   -0.006120595
   3   O   :    0.001046209   -0.001080892    0.003669615
   4   N   :    0.002729561   -0.009964105    0.005737992
   5   C   :    0.000363047    0.002969935   -0.001356365
   6   C   :   -0.002763024    0.004749985   -0.002447278
   7   C   :    0.003714764   -0.011796698   -0.001984303
   8   O   :    0.000140571    0.002693422   -0.000021585
   9   N   :   -0.004699240    0.011656665   -0.000209249
  10   C   :   -0.000375733   -0.002935577    0.002669842
  11   H   :   -0.000525510   -0.001213644    0.000461446
  12   H   :    0.001137258   -0.000252518    0.000524577
  13   H   :    0.001678188   -0.001798642    0.000509641
  14   H   :   -0.001794616    0.002747918   -0.000212470
  15   H   :   -0.001242286   -0.002627555    0.000111469
  16   H   :    0.000908776   -0.001248341    0.000143894
  17   H   :    0.001319603   -0.001250057    0.000767523
  18   H   :    0.000332442   -0.001231243    0.000672030
  19   H   :    0.001359095   -0.001303296    0.000235300
  20   H   :    0.000418287    0.000457486   -0.000022764
  21   H   :   -0.000796346    0.001424450    0.000144583
  22   H   :    0.001571743   -0.000858734   -0.001002095

Difference to translation invariance:
           :    0.0000000000   -0.0000000000    0.0000000000

Difference to rotation invariance:
           :   -0.0003059199   -0.0000935363   -0.0002042729

Norm of the Cartesian gradient     ...    0.0268949109
RMS gradient                       ...    0.0033105347
MAX gradient                       ...    0.0117966978
------------------------------------------------------------------------------
                         ORCA GEOMETRY RELAXATION STEP
------------------------------------------------------------------------------

Reading the OPT-File                    .... done
Getting information on internals        .... done
Copying old internal coords+grads       .... done
Making the new internal coordinates     .... (2022 redundants) done
Validating the new internal coordinates .... (2022 redundants) done
Calculating the B-matrix                .... done
Calculating the G,G- and P matrices     .... done
Transforming gradient to internals      .... done
Projecting the internal gradient        .... done
Number of atoms                         ....  22
Number of internal coordinates          ....  92
Current Energy                          ....   -32.987927396 Eh
Current gradient norm                   ....     0.026894911 Eh/bohr
Maximum allowed component of the step   ....  0.300
Current trust radius                    ....  0.300
Updating the Hessian (BFGS)             .... done
Forming the augmented Hessian           .... done
Diagonalizing the augmented Hessian     .... done
Last element of RFO vector              ....  0.964310980
Lowest eigenvalues of augmented Hessian:
 -0.002137577  0.010128394  0.011622959  0.012508892  0.012788111
Length of the computed step             ....  0.274571413
The final length of the internal step   ....  0.274571413
Converting the step to Cartesian space:
 Initial RMS(Int)=    0.0286260487
Transforming coordinates:
 Iter   0:  RMS(Cart)=    0.0865562253 RMS(Int)=    0.6436527805
 Iter   5:  RMS(Cart)=    0.0000002305 RMS(Int)=    0.0000001708
done
Storing new coordinates                 .... done
The predicted energy change is          ....    -0.001149364
Previously predicted energy change      ....    -0.003431846
Actually observed energy change         ....    -0.003795950
Ratio of predicted to observed change   ....     1.106095620
New trust radius                        ....     0.450000000

                                .--------------------.
          ----------------------|Geometry convergence|-------------------------
          Item                value                   Tolerance       Converged
          ---------------------------------------------------------------------
          Energy change      -0.0037959500            0.0000050000      NO
          RMS gradient        0.0016717003            0.0001000000      NO
          MAX gradient        0.0083313593            0.0003000000      NO
          RMS step            0.0286260487            0.0020000000      NO
          MAX step            0.1134757819            0.0040000000      NO
          -------------------------------------------------------------------------
          ........................................................
          Max(Bonds)      0.0191      Max(Angles)    1.14
          Max(Dihed)        6.50      Max(Improp)    0.00
          ---------------------------------------------------------------------

The optimization has not yet converged - more geometry cycles are needed


    ---------------------------------------------------------------------------
                         Redundant Internal Coordinates
                            (Angstroem and degrees)

        Definition                    Value    dE/dq     Step     New-Value
    ----------------------------------------------------------------------------
     1. B(C   1,C   0)                1.5032 -0.000933  0.0012    1.5044   
     2. B(O   2,C   1)                1.2274 -0.003965  0.0023    1.2297   
     3. B(N   3,C   1)                1.3537  0.006674 -0.0133    1.3404   
     4. B(C   4,N   3)                1.4538  0.001241 -0.0053    1.4485   
     5. B(C   5,C   4)                1.5191 -0.001220  0.0005    1.5195   
     6. B(C   6,C   4)                1.5378 -0.000968 -0.0013    1.5365   
     7. B(O   7,C   6)                1.2234 -0.001935 -0.0005    1.2229   
     8. B(N   8,C   6)                1.3501  0.008331 -0.0191    1.3311   
     9. B(C   9,N   8)                1.4446 -0.001571  0.0040    1.4487   
    10. B(H  10,C   0)                1.0869 -0.000327 -0.0014    1.0855   
    11. B(H  11,C   0)                1.0866  0.000890 -0.0038    1.0827   
    12. B(H  12,C   0)                1.0869  0.000298 -0.0026    1.0843   
    13. B(H  13,N   3)                1.0079 -0.000727 -0.0004    1.0075   
    14. B(H  14,C   4)                1.0954 -0.001009  0.0013    1.0966   
    15. B(H  15,C   5)                1.0862  0.000238 -0.0033    1.0829   
    16. B(H  16,C   5)                1.0884  0.000490 -0.0033    1.0851   
    17. B(H  17,C   5)                1.0877  0.000569 -0.0035    1.0842   
    18. B(H  18,O   2)                2.0079 -0.000504  0.0175    2.0255   
    19. B(H  18,N   8)                1.0139 -0.000231 -0.0021    1.0118   
    20. B(H  19,C   9)                1.0869  0.000443 -0.0025    1.0844   
    21. B(H  20,C   9)                1.0881 -0.000072 -0.0015    1.0866   
    22. B(H  21,C   9)                1.0934  0.000560 -0.0009    1.0925   
    23. A(H  11,C   0,H  12)          108.88 -0.001999    0.86    109.74   
    24. A(C   1,C   0,H  11)          111.61 -0.000065    0.19    111.80   
    25. A(C   1,C   0,H  12)          109.14  0.000356   -0.10    109.04   
    26. A(C   1,C   0,H  10)          108.90 -0.000030   -0.15    108.75   
    27. A(H  10,C   0,H  12)          108.98  0.002019   -0.97    108.00   
    28. A(H  10,C   0,H  11)          109.30 -0.000214    0.15    109.45   
    29. A(O   2,C   1,N   3)          122.30  0.002074   -0.57    121.73   
    30. A(C   0,C   1,N   3)          114.78 -0.002110    0.38    115.15   
    31. A(C   0,C   1,O   2)          122.88 -0.000021    0.03    122.91   
    32. A(C   4,N   3,H  13)          116.82  0.002146   -0.09    116.73   
    33. A(C   1,N   3,C   4)          122.31 -0.002123    0.95    123.26   
    34. A(C   1,N   3,H  13)          118.20 -0.000499    0.64    118.84   
    35. A(C   5,C   4,C   6)          111.05  0.000488   -0.10    110.95   
    36. A(N   3,C   4,C   5)          109.70  0.000394   -0.18    109.51   
    37. A(N   3,C   4,C   6)          111.69 -0.001094    0.49    112.18   
    38. A(C   6,C   4,H  14)          107.03 -0.000001    0.04    107.08   
    39. A(C   5,C   4,H  14)          109.44 -0.001663    0.71    110.15   
    40. A(N   3,C   4,H  14)          107.81  0.001874   -0.96    106.85   
    41. A(H  16,C   5,H  17)          108.46 -0.002077    0.83    109.30   
    42. A(C   4,C   5,H  17)          110.56  0.000893   -0.18    110.37   
    43. A(H  15,C   5,H  16)          107.81 -0.000993    0.02    107.83   
    44. A(C   4,C   5,H  16)          110.94  0.001524   -0.50    110.44   
    45. A(C   4,C   5,H  15)          110.37  0.001690   -0.63    109.73   
    46. A(H  15,C   5,H  17)          108.62 -0.001197    0.53    109.15   
    47. A(O   7,C   6,N   8)          122.91 -0.002344    0.24    123.16   
    48. A(C   4,C   6,N   8)          113.68  0.000380   -0.20    113.48   
    49. A(C   4,C   6,O   7)          123.33  0.001876   -0.41    122.92   
    50. A(C   9,N   8,H  18)          118.77  0.001797   -0.23    118.53   
    51. A(C   6,N   8,H  18)          117.24 -0.001440    0.49    117.73   
    52. A(C   6,N   8,C   9)          121.73 -0.000554    0.21    121.94   
    53. A(N   8,C   9,H  19)          108.77 -0.000738    0.24    109.01   
    54. A(H  20,C   9,H  21)          108.89  0.000933   -0.43    108.45   
    55. A(H  19,C   9,H  21)          109.66  0.000828   -0.12    109.54   
    56. A(N   8,C   9,H  21)          110.09 -0.003188    1.14    111.23   
    57. A(H  19,C   9,H  20)          109.86 -0.000658    0.04    109.91   
    58. A(N   8,C   9,H  20)          109.57  0.002818   -0.87    108.70   
    59. D(O   2,C   1,C   0,H  10)     77.95  0.001083   -0.28     77.67   
    60. D(O   2,C   1,C   0,H  11)   -161.30  0.000755   -0.07   -161.37   
    61. D(N   3,C   1,C   0,H  11)     16.34 -0.000737    2.08     18.42   
    62. D(N   3,C   1,C   0,H  10)   -104.41 -0.000410    1.87   -102.54   
    63. D(O   2,C   1,C   0,H  12)    -40.91 -0.001546    1.05    -39.86   
    64. D(H  13,N   3,C   1,C   0)     19.21  0.001677   -4.45     14.77   
    65. D(C   4,N   3,C   1,C   0)   -179.90  0.000441    0.08   -179.82   
    66. D(H  13,N   3,C   1,O   2)   -163.13  0.000140   -2.27   -165.40   
    67. D(C   4,N   3,C   1,O   2)     -2.25 -0.001097    2.26      0.01   
    68. D(H  14,C   4,N   3,C   1)     34.39  0.000651   -0.31     34.08   
    69. D(C   6,C   4,N   3,H  13)     78.20 -0.001559    4.57     82.78   
    70. D(C   6,C   4,N   3,C   1)    -82.93  0.000123   -0.06    -82.99   
    71. D(C   5,C   4,N   3,H  13)    -45.37 -0.001707    4.50    -40.87   
    72. D(C   5,C   4,N   3,C   1)    153.50 -0.000025   -0.14    153.36   
    73. D(H  15,C   5,C   4,N   3)   -177.86 -0.000392    0.28   -177.58   
    74. D(H  16,C   5,C   4,H  14)   -179.20  0.000296    0.15   -179.04   
    75. D(H  16,C   5,C   4,C   6)    -61.24 -0.000447    0.58    -60.66   
    76. D(H  16,C   5,C   4,N   3)     62.71 -0.001227    1.01     63.71   
    77. D(H  15,C   5,C   4,H  14)    -59.77  0.001130   -0.58    -60.34   
    78. D(H  15,C   5,C   4,C   6)     58.19  0.000388   -0.15     58.04   
    79. D(N   8,C   6,C   4,C   5)    176.50 -0.001447    6.50    183.00   
    80. D(N   8,C   6,C   4,N   3)     53.69 -0.001527    6.46     60.15   
    81. D(O   7,C   6,C   4,H  14)    119.02 -0.001353    3.68    122.70   
    82. D(O   7,C   6,C   4,C   5)     -0.39  0.000388    2.85      2.47   
    83. D(O   7,C   6,C   4,N   3)   -123.19  0.000308    2.81   -120.38   
    84. D(H  18,N   8,C   6,O   7)   -170.06 -0.000662    0.99   -169.07   
    85. D(H  18,N   8,C   6,C   4)     13.04  0.001015   -2.67     10.37   
    86. D(C   9,N   8,C   6,O   7)     -7.37 -0.001090    2.56     -4.82   
    87. D(C   9,N   8,C   6,C   4)    175.73  0.000587   -1.10    174.63   
    88. D(H  19,C   9,N   8,H  18)    -36.70  0.000259   -0.74    -37.45   
    89. D(H  19,C   9,N   8,C   6)    160.87  0.001241   -2.47    158.40   
    90. D(H  21,C   9,N   8,C   6)    -78.96 -0.000134   -1.80    -80.76   
    91. D(H  20,C   9,N   8,H  18)   -156.81 -0.000179   -0.42   -157.23   
    92. D(H  20,C   9,N   8,C   6)     40.76  0.000803   -2.15     38.61   
    ----------------------------------------------------------------------------

Geometry step timings:
Preparation and reading OPT file:      0.001 s ( 2.516 %)
Internal coordinates            :      0.000 s ( 0.229 %)
B/P matrices and projection     :      0.003 s ( 8.760 %)
Hessian update/contruction      :      0.014 s (50.271 %)
Making the step                 :      0.002 s ( 7.360 %)
Converting the step to Cartesian:      0.000 s ( 0.803 %)
Storing new data                :      0.005 s (15.873 %)
Checking convergence            :      0.000 s ( 0.490 %)
Final printing                  :      0.004 s (13.688 %)
Total time                      :      0.029 s

Time for energy+gradient        :      0.148 s
Time for complete geometry iter :      0.203 s

         *************************************************************
         *                GEOMETRY OPTIMIZATION CYCLE   3            *
         *************************************************************
---------------------------------
CARTESIAN COORDINATES (ANGSTROEM)
---------------------------------
  C     2.240058    1.740850    1.190282
  C     1.473803    1.029816    0.108364
  O     1.236803    1.535740   -0.987148
  N     1.064126   -0.208297    0.417909
  C     0.317709   -1.047328   -0.497009
  C     0.569301   -2.508809   -0.165714
  C    -1.185736   -0.730864   -0.479008
  O    -2.038043   -1.557055   -0.184780
  N    -1.471193    0.522459   -0.824548
  C    -2.836194    0.982542   -0.978642
  H     1.581711    2.458078    1.670319
  H     2.623212    1.050870    1.931534
  H     3.061024    2.288339    0.740763
  H     1.081735   -0.497183    1.382981
  H     0.682471   -0.820430   -1.505992
  H     0.046753   -3.139410   -0.874265
  H     0.194944   -2.742354    0.825600
  H     1.630173   -2.728469   -0.209040
  H    -0.725059    1.085216   -1.212413
  H    -2.858124    2.062251   -0.880292
  H    -3.446765    0.527940   -0.203218
  H    -3.242702    0.696100   -1.951421

----------------------------
CARTESIAN COORDINATES (A.U.)
----------------------------
  NO LB    ZA    FRAG    MASS        X           Y           Z
   0 C   6.0000    0    12.011    4.233097    3.289729    2.249307
   1 C   6.0000    0    12.011    2.785083    1.946070    0.204778
   2 O   8.0000    0    15.999    2.337220    2.902127   -1.865439
   3 N   7.0000    0    14.007    2.010906   -0.393625    0.789734
   4 C   6.0000    0    12.011    0.600384   -1.979163   -0.939212
   5 C   6.0000    0    12.011    1.075823   -4.740962   -0.313155
   6 C   6.0000    0    12.011   -2.240716   -1.381132   -0.905193
   7 O   8.0000    0    15.999   -3.851344   -2.942408   -0.349183
   8 N   7.0000    0    14.007   -2.780152    0.987305   -1.558171
   9 C   6.0000    0    12.011   -5.359631    1.856735   -1.849365
  10 H   1.0000    0     1.008    2.989001    4.645094    3.156446
  11 H   1.0000    0     1.008    4.957152    1.985856    3.650070
  12 H   1.0000    0     1.008    5.784496    4.324333    1.399840
  13 H   1.0000    0     1.008    2.044182   -0.939539    2.613456
  14 H   1.0000    0     1.008    1.289683   -1.550388   -2.845913
  15 H   1.0000    0     1.008    0.088350   -5.932625   -1.652121
  16 H   1.0000    0     1.008    0.368391   -5.182297    1.560157
  17 H   1.0000    0     1.008    3.080580   -5.156060   -0.395028
  18 H   1.0000    0     1.008   -1.370163    2.050761   -2.291129
  19 H   1.0000    0     1.008   -5.401071    3.897089   -1.663510
  20 H   1.0000    0     1.008   -6.513443    0.997662   -0.384027
  21 H   1.0000    0     1.008   -6.127819    1.315438   -3.687651

      -----------------------------------------------------------      
     |                   =====================                   |     
     |                           x T B                           |     
     |                   =====================                   |     
     |                         S. Grimme                         |     
     |          Mulliken Center for Theoretical Chemistry        |     
     |                    University of Bonn                     |     
      -----------------------------------------------------------      

   * xtb version 6.7.1 (edcfbbe) compiled by 'albert@albert-system' on 2024-07-22

   xtb is free software: you can redistribute it and/or modify it under
   the terms of the GNU Lesser General Public License as published by
   the Free Software Foundation, either version 3 of the License, or
   (at your option) any later version.
   
   xtb is distributed in the hope that it will be useful,
   but WITHOUT ANY WARRANTY; without even the implied warranty of
   MERCHANTABILITY or FITNESS FOR A PARTICULAR PURPOSE.  See the
   GNU Lesser General Public License for more details.
   
   Cite this work as:
   * C. Bannwarth, E. Caldeweyher, S. Ehlert, A. Hansen, P. Pracht,
     J. Seibert, S. Spicher, S. Grimme, WIREs Comput. Mol. Sci., 2020, 11,
     e01493. DOI: 10.1002/wcms.1493
   
   for GFN2-xTB:
   * C. Bannwarth, S. Ehlert and S. Grimme., J. Chem. Theory Comput., 2019,
     15, 1652-1671. DOI: 10.1021/acs.jctc.8b01176
   for GFN1-xTB:
   * S. Grimme, C. Bannwarth, P. Shushkov, J. Chem. Theory Comput., 2017,
     13, 1989-2009. DOI: 10.1021/acs.jctc.7b00118
   for GFN0-xTB:
   * P. Pracht, E. Caldeweyher, S. Ehlert, S. Grimme, ChemRxiv, 2019, preprint.
     DOI: 10.26434/chemrxiv.8326202.v1
   for GFN-FF:
   * S. Spicher and S. Grimme, Angew. Chem. Int. Ed., 2020, 59, 15665-15673.
     DOI: 10.1002/anie.202004239
   
   for ALPB and GBSA implicit solvation:
   * S. Ehlert, M. Stahn, S. Spicher, S. Grimme, J. Chem. Theory Comput.,
     2021, 17, 4250-4261. DOI: 10.1021/acs.jctc.1c00471
   
   for ddCOSMO and CPCM-X implicit solvation:
   * M. Stahn, S. Ehlert, S. Grimme, J. Phys. Chem. A,
     2023, XX, XXXX-XXXX. DOI: 10.1021/acs.jpca.3c04382
   
   for DFT-D4:
   * E. Caldeweyher, C. Bannwarth and S. Grimme, J. Chem. Phys., 2017,
     147, 034112. DOI: 10.1063/1.4993215
   * E. Caldeweyher, S. Ehlert, A. Hansen, H. Neugebauer, S. Spicher,
     C. Bannwarth and S. Grimme, J. Chem. Phys., 2019, 150, 154122.
     DOI: 10.1063/1.5090222
   * E. Caldeweyher, J.-M. Mewes, S. Ehlert and S. Grimme, Phys. Chem. Chem. Phys.
     2020, 22, 8499-8512. DOI: 10.1039/D0CP00502A
   
   for sTDA-xTB:
   * S. Grimme and C. Bannwarth, J. Chem. Phys., 2016, 145, 054103.
     DOI: 10.1063/1.4959605
   
   in the mass-spec context:
   * V. Asgeirsson, C. Bauer and S. Grimme, Chem. Sci., 2017, 8, 4879.
     DOI: 10.1039/c7sc00601b
   * J. Koopman and S. Grimme, ACS Omega 2019, 4, 12, 15120-15133.
     DOI: 10.1021/acsomega.9b02011
   
   for metadynamics refer to:
   * S. Grimme, J. Chem. Theory Comput., 2019, 155, 2847-2862
     DOI: 10.1021/acs.jctc.9b00143
   
   for SPH calculations refer to:
   * S. Spicher and S. Grimme, J. Chem. Theory Comput., 2021, 17, 1701-1714
     DOI: 10.1021/acs.jctc.0c01306
   
   for ONIOM refer to:
   * C. Plett, A. Katbashev, S. Ehlert, S. Grimme, M. Bursch,
     Phys. Chem. Chem. Phys., 2023, 25, 17860-17868. DOI: 10.1039/D3CP02178E
   
   for DIPRO refer to:
   * J. Kohn, N. Gildemeister, S. Grimme, D. Fazzi, A. Hansen,
     J. Chem. Phys., 2023, just accepted.
   
   for PTB refer to:
   * S. Grimme, M. Mueller, A. Hansen, J. Chem. Phys., 2023, 158, 124111.
     DOI: 10.1063/5.0137838
   
   with help from (in alphabetical order)
   P. Atkinson, C. Bannwarth, F. Bohle, G. Brandenburg, E. Caldeweyher
   M. Checinski, S. Dohm, S. Ehlert, S. Ehrlich, I. Gerasimov, C. Hölzer
   A. Katbashev, J. Kohn, J. Koopman, C. Lavigne, S. Lehtola, F. März, M. Müller,
   F. Musil, H. Neugebauer, J. Pisarek, C. Plett, P. Pracht, F. Pultar,
   J. Seibert, P. Shushkov, S. Spicher, M. Stahn, M. Steiner, T. Strunk,
   J. Stückrath, T. Rose, and J. Unsleber
   
 * started run on 2026/09/28 at 23:19:02.048     
   ID    Z sym.   atoms
    1    6 C      1, 2, 5-7, 10
    2    8 O      3, 8
    3    7 N      4, 9
    4    1 H      11-22

           -------------------------------------------------
          |                Calculation Setup                |
           -------------------------------------------------

          program call               : /app1/ebapps/arches/flat-avx2/software/ORCA/6.1.0-gompi-2023b-avx2/bin/otool_xtb o01-xtb-opt-freq_XTB.xyz --grad -c 0 -u 0 -P 8 --namespace o01-xtb-opt-freq --input o01-xtb-opt-freq_XTB.input.tmp --alpb WATER --acc 0.200000
          hostname                   : IN-006
          calculation namespace      : o01-xtb-opt-freq
          coordinate file            : o01-xtb-opt-freq_XTB.xyz
          omp threads                :                     8


           -------------------------------------------------
          |                 G F N 2 - x T B                 |
           -------------------------------------------------

        Reference                      10.1021/acs.jctc.8b01176
      * Hamiltonian:
        H0-scaling (s, p, d)           1.850000    2.230000    2.230000
        zeta-weighting                 0.500000
      * Dispersion:
        s8                             2.700000
        a1                             0.520000
        a2                             5.000000
        s9                             5.000000
      * Repulsion:
        kExp                           1.500000    1.000000
        rExp                           1.000000
      * Coulomb:
        alpha                          2.000000
        third order                    shell-resolved
        anisotropic                    true
        a3                             3.000000
        a5                             4.000000
        cn-shift                       1.200000
        cn-exp                         4.000000
        max-rad                        5.000000

      * Solvation model:               ALPB
        Solvent                        WATER
        Parameter file                 internal GFN2-xTB/ALPB
        Dielectric constant                8.0200E+01
        Reference state                gsolv [1 M gas/solution]
        Free energy shift                  1.0808E-03 Eh       6.7819E-01 kcal/mol
        Temperature                        2.9815E+02 K
        Density                            1.0000E+00 kg/L
        Solvent mass                       1.8000E+01 g/mol
        Interaction kernel             P16
        Born radius scaling (c1)           1.4744E+00
        Born radii integrator          GBOBC
        Born offset                        0.0000E+00 a0       0.0000E+00 AA
        H-bond correction              true
        Ion screening                  false
        Surface tension                    1.0000E-05 Eh       1.5569E+01 dyn/cm
        Grid points                               230 per atom
q/qsh data taken from xtbrestart
CAMM data taken from xtbrestart

          ...................................................
          :                      SETUP                      :
          :.................................................:
          :  # basis functions                  52          :
          :  # atomic orbitals                  52          :
          :  # shells                           32          :
          :  # electrons                        58          :
          :  max. iterations                   250          :
          :  Hamiltonian                  GFN2-xTB          :
          :  restarted?                       true          :
          :  GBSA solvation                   true          :
          :  PC potential                    false          :
          :  electronic temp.          300.0000000     K    :
          :  accuracy                    0.2000000          :
          :  -> integral cutoff          0.3198970E+02      :
          :  -> integral neglect         0.2000000E-08      :
          :  -> SCF convergence          0.2000000E-06 Eh   :
          :  -> wf. convergence          0.2000000E-04 e    :
          :  Broyden damping             0.4000000          :
          :  net charge                          0          :
          :  unpaired electrons                  0          :
          ...................................................

 iter      E             dE          RMSdq      gap      omega  full diag
   1    -33.3828877 -0.333829E+02  0.255E-01    4.56       0.0  T
   2    -33.3830120 -0.124314E-03  0.144E-01    4.56       1.0  T
   3    -33.3830152 -0.319004E-05  0.482E-02    4.56       1.0  T
   4    -33.3830167 -0.147461E-05  0.707E-03    4.56       3.0  T
   5    -33.3830169 -0.210093E-06  0.402E-03    4.56       5.3  T
   6    -33.3830170 -0.356248E-07  0.995E-04    4.56      21.4  T
   7    -33.3830170 -0.207631E-08  0.347E-04    4.56      61.4  T
   8    -33.3830170 -0.261103E-09  0.126E-04    4.56     169.4  T
   9    -33.3830170 -0.249472E-10  0.472E-05    4.56     451.8  T

   *** convergence criteria satisfied after 9 iterations ***

         #    Occupation            Energy/Eh            Energy/eV
      -------------------------------------------------------------
         1        2.0000           -0.7097161             -19.3124
       ...           ...                  ...                  ...
        23        2.0000           -0.4656004             -12.6696
        24        2.0000           -0.4622982             -12.5798
        25        2.0000           -0.4552104             -12.3869
        26        2.0000           -0.4338067             -11.8045
        27        2.0000           -0.4079062             -11.0997
        28        2.0000           -0.4050780             -11.0227
        29        2.0000           -0.3906562             -10.6303 (HOMO)
        30                         -0.2231195              -6.0714 (LUMO)
        31                         -0.2123262              -5.7777
        32                          0.0081229               0.2210
        33                          0.0117898               0.3208
        34                          0.0871874               2.3725
       ...                                ...                  ...
        52                          0.6148734              16.7316
      -------------------------------------------------------------
                  HL-Gap            0.1675366 Eh            4.5589 eV
             Fermi-level           -0.3068879 Eh           -8.3508 eV

 SCC (total)                   0 d,  0 h,  0 min,  0.011 sec
 SCC setup                      ...        0 min,  0.000 sec (  3.563%)
 Dispersion                     ...        0 min,  0.000 sec (  1.437%)
 classical contributions        ...        0 min,  0.000 sec (  0.170%)
 integral evaluation            ...        0 min,  0.001 sec (  6.293%)
 iterations                     ...        0 min,  0.008 sec ( 72.842%)
 molecular gradient             ...        0 min,  0.002 sec ( 14.560%)
 printout                       ...        0 min,  0.000 sec (  0.911%)

         :::::::::::::::::::::::::::::::::::::::::::::::::::::
         ::                     SUMMARY                     ::
         :::::::::::::::::::::::::::::::::::::::::::::::::::::
         :: total energy             -32.988896832267 Eh    ::
         :: total w/o Gsasa/hb       -32.986578374824 Eh    ::
         :: gradient norm              0.013594807159 Eh/a0 ::
         :: HOMO-LUMO gap              4.558903716322 eV    ::
         ::.................................................::
         :: SCC energy               -33.382916576248 Eh    ::
         :: -> isotropic ES            0.104107985649 Eh    ::
         :: -> anisotropic ES          0.002105918689 Eh    ::
         :: -> anisotropic XC          0.010602138758 Eh    ::
         :: -> dispersion             -0.015443751246 Eh    ::
         :: -> Gsolv                  -0.020241545557 Eh    ::
         ::    -> Gelec               -0.017923088114 Eh    ::
         ::    -> Gsasa                0.001606551298 Eh    ::
         ::    -> Ghb                 -0.005005768439 Eh    ::
         ::    -> Gshift               0.001080759698 Eh    ::
         :: repulsion energy           0.394019743981 Eh    ::
         :: add. restraining           0.000000000000 Eh    ::
         :: total charge               0.000000000000 e     ::
         :::::::::::::::::::::::::::::::::::::::::::::::::::::


Property printout bound to 'properties.out'

           -------------------------------------------------
          | TOTAL ENERGY              -32.988896832267 Eh   |
          | GRADIENT NORM               0.013594807159 Eh/α |
          | HOMO-LUMO GAP               4.558903716322 eV   |
           -------------------------------------------------

------------------------------------------------------------------------
 * finished run on 2026/09/28 at 23:19:02.110     
------------------------------------------------------------------------
 total:
 * wall-time:     0 d,  0 h,  0 min,  0.060 sec
 *  cpu-time:     0 d,  0 h,  0 min,  0.392 sec
 * ratio c/w:     6.516 speedup
 SCF:
 * wall-time:     0 d,  0 h,  0 min,  0.011 sec
 *  cpu-time:     0 d,  0 h,  0 min,  0.089 sec
 * ratio c/w:     7.842 speedup


-------------------------   --------------------
FINAL SINGLE POINT ENERGY       -32.988896832270
-------------------------   --------------------


-------------
DIPOLE MOMENT
-------------
                                X             Y             Z
Total Dipole Moment    :      0.97700       0.54200       1.07400
                        -----------------------------------------
Magnitude (a.u.)       :      1.54976
Magnitude (Debye)      :      3.93919


------------------
CARTESIAN GRADIENT
------------------

   1   C   :   -0.000432947    0.000685000    0.000718413
   2   C   :   -0.000364372   -0.000380084   -0.002192096
   3   O   :   -0.000899101   -0.001813500    0.003296896
   4   N   :    0.003014783   -0.002292323   -0.001812248
   5   C   :   -0.001890023    0.003763604    0.000135916
   6   C   :   -0.001322122    0.001307143   -0.000478987
   7   C   :    0.000061907    0.001131481    0.001777711
   8   O   :    0.002167802    0.004516699   -0.003771158
   9   N   :    0.002777595   -0.003180934    0.004033980
  10   C   :   -0.001183278   -0.001404809    0.000506133
  11   H   :    0.000993150   -0.001163555   -0.000498196
  12   H   :   -0.000138112    0.000981842   -0.000664617
  13   H   :   -0.000693815   -0.001385746    0.000816029
  14   H   :   -0.001701981    0.002410362   -0.000840301
  15   H   :   -0.000187765   -0.000763974    0.000439896
  16   H   :    0.001180389    0.000920442    0.001339866
  17   H   :    0.001178271   -0.000272387   -0.001217399
  18   H   :   -0.001288087   -0.000028754    0.000295818
  19   H   :   -0.001190782   -0.003269223   -0.000595756
  20   H   :    0.000031516   -0.001069514   -0.000256871
  21   H   :    0.000569686    0.001360066   -0.000784287
  22   H   :   -0.000682712   -0.000051835   -0.000248743

Difference to translation invariance:
           :   -0.0000000000    0.0000000000   -0.0000000000

Difference to rotation invariance:
           :   -0.0000445450   -0.0000166151   -0.0002497588

Norm of the Cartesian gradient     ...    0.0135948072
RMS gradient                       ...    0.0016734051
MAX gradient                       ...    0.0045166988
------------------------------------------------------------------------------
                         ORCA GEOMETRY RELAXATION STEP
------------------------------------------------------------------------------

Reading the OPT-File                    .... done
Getting information on internals        .... done
Copying old internal coords+grads       .... done
Making the new internal coordinates     .... (2022 redundants) done
Validating the new internal coordinates .... (2022 redundants) done
Calculating the B-matrix                .... done
Calculating the G,G- and P matrices     .... done
Transforming gradient to internals      .... done
Projecting the internal gradient        .... done
Number of atoms                         ....  22
Number of internal coordinates          ....  92
Current Energy                          ....   -32.988896832 Eh
Current gradient norm                   ....     0.013594807 Eh/bohr
Maximum allowed component of the step   ....  0.300
Current trust radius                    ....  0.450
Updating the Hessian (BFGS)             .... done
Forming the augmented Hessian           .... done
Diagonalizing the augmented Hessian     .... done
Last element of RFO vector              ....  0.981847078
Lowest eigenvalues of augmented Hessian:
 -0.000947112  0.009228207  0.011616365  0.012351109  0.012760538
Length of the computed step             ....  0.193181034
The final length of the internal step   ....  0.193181034
Converting the step to Cartesian space:
 Initial RMS(Int)=    0.0201405151
Transforming coordinates:
 Iter   0:  RMS(Cart)=    0.0237120077 RMS(Int)=    0.0201287458
done
Storing new coordinates                 .... done
The predicted energy change is          ....    -0.000491228
Previously predicted energy change      ....    -0.001149364
Actually observed energy change         ....    -0.000969436
Ratio of predicted to observed change   ....     0.843454459
New trust radius                        ....     0.675000000

                                .--------------------.
          ----------------------|Geometry convergence|-------------------------
          Item                value                   Tolerance       Converged
          ---------------------------------------------------------------------
          Energy change      -0.0009694363            0.0000050000      NO
          RMS gradient        0.0015285560            0.0001000000      NO
          MAX gradient        0.0079422390            0.0003000000      NO
          RMS step            0.0201405151            0.0020000000      NO
          MAX step            0.0687030746            0.0040000000      NO
          -------------------------------------------------------------------------
          ........................................................
          Max(Bonds)      0.0049      Max(Angles)    0.64
          Max(Dihed)        3.94      Max(Improp)    0.00
          ---------------------------------------------------------------------

The optimization has not yet converged - more geometry cycles are needed


    ---------------------------------------------------------------------------
                         Redundant Internal Coordinates
                            (Angstroem and degrees)

        Definition                    Value    dE/dq     Step     New-Value
    ----------------------------------------------------------------------------
     1. B(C   1,C   0)                1.5044 -0.000287  0.0008    1.5053   
     2. B(O   2,C   1)                1.2297 -0.003501  0.0026    1.2323   
     3. B(N   3,C   1)                1.3404 -0.003668 -0.0014    1.3390   
     4. B(C   4,N   3)                1.4485 -0.002599  0.0014    1.4499   
     5. B(C   5,C   4)                1.5195 -0.001910  0.0028    1.5223   
     6. B(C   6,C   4)                1.5365 -0.002934  0.0040    1.5405   
     7. B(O   7,C   6)                1.2229 -0.005469  0.0027    1.2256   
     8. B(N   8,C   6)                1.3311 -0.007942  0.0005    1.3316   
     9. B(C   9,N   8)                1.4487  0.000906  0.0004    1.4491   
    10. B(H  10,C   0)                1.0855 -0.001589  0.0019    1.0874   
    11. B(H  11,C   0)                1.0827 -0.001131  0.0003    1.0831   
    12. B(H  12,C   0)                1.0843 -0.001564  0.0014    1.0857   
    13. B(H  13,N   3)                1.0075 -0.001526  0.0018    1.0093   
    14. B(H  14,C   4)                1.0966 -0.000624  0.0014    1.0981   
    15. B(H  15,C   5)                1.0829 -0.001983  0.0018    1.0848   
    16. B(H  16,C   5)                1.0851 -0.001463  0.0010    1.0861   
    17. B(H  17,C   5)                1.0842 -0.001264  0.0007    1.0850   
    18. B(H  18,O   2)                2.0255  0.000045  0.0049    2.0304   
    19. B(H  18,N   8)                1.0119 -0.002433  0.0023    1.0142   
    20. B(H  19,C   9)                1.0844 -0.001091  0.0007    1.0851   
    21. B(H  20,C   9)                1.0866 -0.001446  0.0016    1.0882   
    22. B(H  21,C   9)                1.0925  0.000489 -0.0010    1.0915   
    23. A(H  11,C   0,H  12)          109.73 -0.000621    0.47    110.20   
    24. A(C   1,C   0,H  11)          111.80  0.000288    0.04    111.84   
    25. A(C   1,C   0,H  12)          109.03  0.000015   -0.04    108.99   
    26. A(C   1,C   0,H  10)          108.75  0.000254   -0.11    108.64   
    27. A(H  10,C   0,H  12)          107.99  0.000336   -0.46    107.54   
    28. A(H  10,C   0,H  11)          109.45 -0.000260    0.09    109.54   
    29. A(O   2,C   1,N   3)          121.79 -0.000742   -0.08    121.72   
    30. A(C   0,C   1,N   3)          115.22 -0.000946    0.29    115.52   
    31. A(C   0,C   1,O   2)          122.98  0.001689   -0.17    122.81   
    32. A(C   4,N   3,H  13)          116.61  0.000768    0.04    116.65   
    33. A(C   1,N   3,C   4)          123.14  0.000284    0.47    123.61   
    34. A(C   1,N   3,H  13)          118.73 -0.001273    0.63    119.36   
    35. A(C   5,C   4,C   6)          110.95 -0.000279    0.07    111.02   
    36. A(N   3,C   4,C   5)          109.52 -0.001135    0.18    109.70   
    37. A(N   3,C   4,C   6)          112.18  0.001324   -0.12    112.06   
    38. A(C   6,C   4,H  14)          107.08 -0.000212   -0.01    107.06   
    39. A(C   5,C   4,H  14)          110.15  0.000138    0.32    110.47   
    40. A(N   3,C   4,H  14)          106.85  0.000207   -0.45    106.41   
    41. A(H  16,C   5,H  17)          109.30 -0.000728    0.45    109.75   
    42. A(C   4,C   5,H  17)          110.37  0.000144   -0.06    110.32   
    43. A(H  15,C   5,H  16)          107.81 -0.000346   -0.01    107.81   
    44. A(C   4,C   5,H  16)          110.43  0.000984   -0.36    110.07   
    45. A(C   4,C   5,H  15)          109.73  0.000246   -0.28    109.45   
    46. A(H  15,C   5,H  17)          109.15 -0.000328    0.27    109.42   
    47. A(O   7,C   6,N   8)          123.31 -0.002565    0.51    123.82   
    48. A(C   4,C   6,N   8)          113.62  0.000267    0.04    113.66   
    49. A(C   4,C   6,O   7)          123.07  0.002285   -0.31    122.76   
    50. A(C   9,N   8,H  18)          118.52  0.001702   -0.11    118.41   
    51. A(C   6,N   8,H  18)          117.71 -0.001358    0.64    118.36   
    52. A(C   6,N   8,C   9)          121.92 -0.000713    0.38    122.30   
    53. A(N   8,C   9,H  19)          109.00 -0.000432    0.16    109.17   
    54. A(H  20,C   9,H  21)          108.46 -0.000107   -0.17    108.29   
    55. A(H  19,C   9,H  21)          109.53 -0.000471    0.03    109.56   
    56. A(N   8,C   9,H  21)          111.23  0.000763    0.24    111.46   
    57. A(H  19,C   9,H  20)          109.91 -0.000441    0.15    110.05   
    58. A(N   8,C   9,H  20)          108.70  0.000687   -0.41    108.29   
    59. D(O   2,C   1,C   0,H  10)     77.66 -0.000184    0.80     78.46   
    60. D(O   2,C   1,C   0,H  11)   -161.38 -0.000155    0.86   -160.52   
    61. D(N   3,C   1,C   0,H  11)     18.43  0.000126    0.95     19.38   
    62. D(N   3,C   1,C   0,H  10)   -102.53  0.000097    0.89   -101.65   
    63. D(O   2,C   1,C   0,H  12)    -39.87 -0.000739    1.44    -38.42   
    64. D(H  13,N   3,C   1,C   0)     14.75  0.000928   -3.34     11.41   
    65. D(C   4,N   3,C   1,C   0)   -179.79 -0.000010    0.40   -179.38   
    66. D(H  13,N   3,C   1,O   2)   -165.44  0.001211   -3.26   -168.70   
    67. D(C   4,N   3,C   1,O   2)      0.02  0.000273    0.49      0.51   
    68. D(H  14,C   4,N   3,C   1)     34.08  0.000681   -0.58     33.50   
    69. D(C   6,C   4,N   3,H  13)     82.77 -0.001109    3.60     86.37   
    70. D(C   6,C   4,N   3,C   1)    -82.97  0.000084   -0.22    -83.19   
    71. D(C   5,C   4,N   3,H  13)    -40.88 -0.000849    3.46    -37.42   
    72. D(C   5,C   4,N   3,C   1)    153.37  0.000345   -0.35    153.02   
    73. D(H  15,C   5,C   4,N   3)   -177.58  0.000452    0.20   -177.38   
    74. D(H  16,C   5,C   4,H  14)   -179.05 -0.000221    0.37   -178.68   
    75. D(H  16,C   5,C   4,C   6)    -60.66 -0.000570    0.60    -60.07   
    76. D(H  16,C   5,C   4,N   3)     63.71  0.000122    0.62     64.33   
    77. D(H  15,C   5,C   4,H  14)    -60.34  0.000109   -0.05    -60.39   
    78. D(H  15,C   5,C   4,C   6)     58.05 -0.000240    0.18     58.22   
    79. D(N   8,C   6,C   4,C   5)   -177.00  0.000673   -0.23   -177.23   
    80. D(N   8,C   6,C   4,N   3)     60.15  0.001399   -0.43     59.73   
    81. D(O   7,C   6,C   4,H  14)    122.70 -0.000902    2.75    125.45   
    82. D(O   7,C   6,C   4,C   5)      2.46 -0.000777    2.33      4.80   
    83. D(O   7,C   6,C   4,N   3)   -120.38 -0.000051    2.14   -118.25   
    84. D(H  18,N   8,C   6,O   7)   -169.09  0.001935   -3.94   -173.03   
    85. D(H  18,N   8,C   6,C   4)     10.37  0.000511   -1.41      8.96   
    86. D(C   9,N   8,C   6,O   7)     -4.82  0.000661   -0.76     -5.57   
    87. D(C   9,N   8,C   6,C   4)    174.64 -0.000763    1.77    176.41   
    88. D(H  19,C   9,N   8,H  18)    -37.45 -0.000729    0.38    -37.07   
    89. D(H  19,C   9,N   8,C   6)    158.40  0.001019   -2.98    155.42   
    90. D(H  21,C   9,N   8,C   6)    -80.74  0.000632   -2.69    -83.43   
    91. D(H  20,C   9,N   8,H  18)   -157.24 -0.000348    0.35   -156.89   
    92. D(H  20,C   9,N   8,C   6)     38.61  0.001401   -3.01     35.60   
    ----------------------------------------------------------------------------

Geometry step timings:
Preparation and reading OPT file:      0.001 s ( 2.779 %)
Internal coordinates            :      0.000 s ( 0.199 %)
B/P matrices and projection     :      0.002 s ( 7.591 %)
Hessian update/contruction      :      0.017 s (52.053 %)
Making the step                 :      0.002 s ( 6.456 %)
Converting the step to Cartesian:      0.000 s ( 0.629 %)
Storing new data                :      0.005 s (14.847 %)
Checking convergence            :      0.000 s ( 0.356 %)
Final printing                  :      0.005 s (15.081 %)
Total time                      :      0.033 s

Time for energy+gradient        :      0.137 s
Time for complete geometry iter :      0.196 s

         *************************************************************
         *                GEOMETRY OPTIMIZATION CYCLE   4            *
         *************************************************************
---------------------------------
CARTESIAN COORDINATES (ANGSTROEM)
---------------------------------
  C     2.236572    1.744412    1.188889
  C     1.473578    1.028808    0.106501
  O     1.245214    1.533733   -0.994135
  N     1.055571   -0.205251    0.415790
  C     0.318341   -1.054327   -0.499836
  C     0.569413   -2.516359   -0.157883
  C    -1.189673   -0.738280   -0.497218
  O    -2.036350   -1.559536   -0.164409
  N    -1.473548    0.514561   -0.847794
  C    -2.836007    0.989823   -0.980436
  H     1.570868    2.456649    1.670462
  H     2.627281    1.056448    1.928566
  H     3.046699    2.308133    0.736445
  H     1.109844   -0.517679    1.373982
  H     0.693853   -0.825020   -1.505882
  H     0.053873   -3.148157   -0.873240
  H     0.174830   -2.741431    0.828676
  H     1.632221   -2.732646   -0.185741
  H    -0.724671    1.093656   -1.210900
  H    -2.853403    2.065540   -0.838903
  H    -3.443074    0.503480   -0.219423
  H    -3.251428    0.743446   -1.959253

----------------------------
CARTESIAN COORDINATES (A.U.)
----------------------------
  NO LB    ZA    FRAG    MASS        X           Y           Z
   0 C   6.0000    0    12.011    4.226509    3.296460    2.246675
   1 C   6.0000    0    12.011    2.784659    1.944165    0.201257
   2 O   8.0000    0    15.999    2.353114    2.898335   -1.878643
   3 N   7.0000    0    14.007    1.994741   -0.387869    0.785730
   4 C   6.0000    0    12.011    0.601577   -1.992389   -0.944553
   5 C   6.0000    0    12.011    1.076034   -4.755230   -0.298355
   6 C   6.0000    0    12.011   -2.248156   -1.395148   -0.939605
   7 O   8.0000    0    15.999   -3.848144   -2.947096   -0.310687
   8 N   7.0000    0    14.007   -2.784602    0.972379   -1.602098
   9 C   6.0000    0    12.011   -5.359277    1.870494   -1.852756
  10 H   1.0000    0     1.008    2.968510    4.642394    3.156716
  11 H   1.0000    0     1.008    4.964842    1.996397    3.644462
  12 H   1.0000    0     1.008    5.757427    4.361739    1.391680
  13 H   1.0000    0     1.008    2.097300   -0.978272    2.596450
  14 H   1.0000    0     1.008    1.311192   -1.559062   -2.845705
  15 H   1.0000    0     1.008    0.101806   -5.949155   -1.650184
  16 H   1.0000    0     1.008    0.330381   -5.180554    1.565971
  17 H   1.0000    0     1.008    3.084450   -5.163953   -0.350999
  18 H   1.0000    0     1.008   -1.369430    2.066710   -2.288269
  19 H   1.0000    0     1.008   -5.392151    3.903306   -1.585296
  20 H   1.0000    0     1.008   -6.506466    0.951439   -0.414649
  21 H   1.0000    0     1.008   -6.144309    1.404909   -3.702451

      -----------------------------------------------------------      
     |                   =====================                   |     
     |                           x T B                           |     
     |                   =====================                   |     
     |                         S. Grimme                         |     
     |          Mulliken Center for Theoretical Chemistry        |     
     |                    University of Bonn                     |     
      -----------------------------------------------------------      

   * xtb version 6.7.1 (edcfbbe) compiled by 'albert@albert-system' on 2024-07-22

   xtb is free software: you can redistribute it and/or modify it under
   the terms of the GNU Lesser General Public License as published by
   the Free Software Foundation, either version 3 of the License, or
   (at your option) any later version.
   
   xtb is distributed in the hope that it will be useful,
   but WITHOUT ANY WARRANTY; without even the implied warranty of
   MERCHANTABILITY or FITNESS FOR A PARTICULAR PURPOSE.  See the
   GNU Lesser General Public License for more details.
   
   Cite this work as:
   * C. Bannwarth, E. Caldeweyher, S. Ehlert, A. Hansen, P. Pracht,
     J. Seibert, S. Spicher, S. Grimme, WIREs Comput. Mol. Sci., 2020, 11,
     e01493. DOI: 10.1002/wcms.1493
   
   for GFN2-xTB:
   * C. Bannwarth, S. Ehlert and S. Grimme., J. Chem. Theory Comput., 2019,
     15, 1652-1671. DOI: 10.1021/acs.jctc.8b01176
   for GFN1-xTB:
   * S. Grimme, C. Bannwarth, P. Shushkov, J. Chem. Theory Comput., 2017,
     13, 1989-2009. DOI: 10.1021/acs.jctc.7b00118
   for GFN0-xTB:
   * P. Pracht, E. Caldeweyher, S. Ehlert, S. Grimme, ChemRxiv, 2019, preprint.
     DOI: 10.26434/chemrxiv.8326202.v1
   for GFN-FF:
   * S. Spicher and S. Grimme, Angew. Chem. Int. Ed., 2020, 59, 15665-15673.
     DOI: 10.1002/anie.202004239
   
   for ALPB and GBSA implicit solvation:
   * S. Ehlert, M. Stahn, S. Spicher, S. Grimme, J. Chem. Theory Comput.,
     2021, 17, 4250-4261. DOI: 10.1021/acs.jctc.1c00471
   
   for ddCOSMO and CPCM-X implicit solvation:
   * M. Stahn, S. Ehlert, S. Grimme, J. Phys. Chem. A,
     2023, XX, XXXX-XXXX. DOI: 10.1021/acs.jpca.3c04382
   
   for DFT-D4:
   * E. Caldeweyher, C. Bannwarth and S. Grimme, J. Chem. Phys., 2017,
     147, 034112. DOI: 10.1063/1.4993215
   * E. Caldeweyher, S. Ehlert, A. Hansen, H. Neugebauer, S. Spicher,
     C. Bannwarth and S. Grimme, J. Chem. Phys., 2019, 150, 154122.
     DOI: 10.1063/1.5090222
   * E. Caldeweyher, J.-M. Mewes, S. Ehlert and S. Grimme, Phys. Chem. Chem. Phys.
     2020, 22, 8499-8512. DOI: 10.1039/D0CP00502A
   
   for sTDA-xTB:
   * S. Grimme and C. Bannwarth, J. Chem. Phys., 2016, 145, 054103.
     DOI: 10.1063/1.4959605
   
   in the mass-spec context:
   * V. Asgeirsson, C. Bauer and S. Grimme, Chem. Sci., 2017, 8, 4879.
     DOI: 10.1039/c7sc00601b
   * J. Koopman and S. Grimme, ACS Omega 2019, 4, 12, 15120-15133.
     DOI: 10.1021/acsomega.9b02011
   
   for metadynamics refer to:
   * S. Grimme, J. Chem. Theory Comput., 2019, 155, 2847-2862
     DOI: 10.1021/acs.jctc.9b00143
   
   for SPH calculations refer to:
   * S. Spicher and S. Grimme, J. Chem. Theory Comput., 2021, 17, 1701-1714
     DOI: 10.1021/acs.jctc.0c01306
   
   for ONIOM refer to:
   * C. Plett, A. Katbashev, S. Ehlert, S. Grimme, M. Bursch,
     Phys. Chem. Chem. Phys., 2023, 25, 17860-17868. DOI: 10.1039/D3CP02178E
   
   for DIPRO refer to:
   * J. Kohn, N. Gildemeister, S. Grimme, D. Fazzi, A. Hansen,
     J. Chem. Phys., 2023, just accepted.
   
   for PTB refer to:
   * S. Grimme, M. Mueller, A. Hansen, J. Chem. Phys., 2023, 158, 124111.
     DOI: 10.1063/5.0137838
   
   with help from (in alphabetical order)
   P. Atkinson, C. Bannwarth, F. Bohle, G. Brandenburg, E. Caldeweyher
   M. Checinski, S. Dohm, S. Ehlert, S. Ehrlich, I. Gerasimov, C. Hölzer
   A. Katbashev, J. Kohn, J. Koopman, C. Lavigne, S. Lehtola, F. März, M. Müller,
   F. Musil, H. Neugebauer, J. Pisarek, C. Plett, P. Pracht, F. Pultar,
   J. Seibert, P. Shushkov, S. Spicher, M. Stahn, M. Steiner, T. Strunk,
   J. Stückrath, T. Rose, and J. Unsleber
   
 * started run on 2026/09/28 at 23:19:02.248     
   ID    Z sym.   atoms
    1    6 C      1, 2, 5-7, 10
    2    8 O      3, 8
    3    7 N      4, 9
    4    1 H      11-22

           -------------------------------------------------
          |                Calculation Setup                |
           -------------------------------------------------

          program call               : /app1/ebapps/arches/flat-avx2/software/ORCA/6.1.0-gompi-2023b-avx2/bin/otool_xtb o01-xtb-opt-freq_XTB.xyz --grad -c 0 -u 0 -P 8 --namespace o01-xtb-opt-freq --input o01-xtb-opt-freq_XTB.input.tmp --alpb WATER --acc 0.200000
          hostname                   : IN-006
          calculation namespace      : o01-xtb-opt-freq
          coordinate file            : o01-xtb-opt-freq_XTB.xyz
          omp threads                :                     8


           -------------------------------------------------
          |                 G F N 2 - x T B                 |
           -------------------------------------------------

        Reference                      10.1021/acs.jctc.8b01176
      * Hamiltonian:
        H0-scaling (s, p, d)           1.850000    2.230000    2.230000
        zeta-weighting                 0.500000
      * Dispersion:
        s8                             2.700000
        a1                             0.520000
        a2                             5.000000
        s9                             5.000000
      * Repulsion:
        kExp                           1.500000    1.000000
        rExp                           1.000000
      * Coulomb:
        alpha                          2.000000
        third order                    shell-resolved
        anisotropic                    true
        a3                             3.000000
        a5                             4.000000
        cn-shift                       1.200000
        cn-exp                         4.000000
        max-rad                        5.000000

      * Solvation model:               ALPB
        Solvent                        WATER
        Parameter file                 internal GFN2-xTB/ALPB
        Dielectric constant                8.0200E+01
        Reference state                gsolv [1 M gas/solution]
        Free energy shift                  1.0808E-03 Eh       6.7819E-01 kcal/mol
        Temperature                        2.9815E+02 K
        Density                            1.0000E+00 kg/L
        Solvent mass                       1.8000E+01 g/mol
        Interaction kernel             P16
        Born radius scaling (c1)           1.4744E+00
        Born radii integrator          GBOBC
        Born offset                        0.0000E+00 a0       0.0000E+00 AA
        H-bond correction              true
        Ion screening                  false
        Surface tension                    1.0000E-05 Eh       1.5569E+01 dyn/cm
        Grid points                               230 per atom
q/qsh data taken from xtbrestart
CAMM data taken from xtbrestart

          ...................................................
          :                      SETUP                      :
          :.................................................:
          :  # basis functions                  52          :
          :  # atomic orbitals                  52          :
          :  # shells                           32          :
          :  # electrons                        58          :
          :  max. iterations                   250          :
          :  Hamiltonian                  GFN2-xTB          :
          :  restarted?                       true          :
          :  GBSA solvation                   true          :
          :  PC potential                    false          :
          :  electronic temp.          300.0000000     K    :
          :  accuracy                    0.2000000          :
          :  -> integral cutoff          0.3198970E+02      :
          :  -> integral neglect         0.2000000E-08      :
          :  -> SCF convergence          0.2000000E-06 Eh   :
          :  -> wf. convergence          0.2000000E-04 e    :
          :  Broyden damping             0.4000000          :
          :  net charge                          0          :
          :  unpaired electrons                  0          :
          ...................................................

 iter      E             dE          RMSdq      gap      omega  full diag
   1    -33.3796630 -0.333797E+02  0.946E-02    4.56       0.0  T
   2    -33.3796755 -0.124854E-04  0.518E-02    4.57       1.0  T
   3    -33.3796761 -0.625597E-06  0.149E-02    4.56       1.4  T
   4    -33.3796765 -0.382520E-06  0.325E-03    4.56       6.6  T
   5    -33.3796766 -0.465938E-07  0.164E-03    4.56      13.0  T
   6    -33.3796766 -0.440900E-08  0.281E-04    4.56      75.8  T
   7    -33.3796766 -0.153378E-09  0.133E-04    4.56     160.6  T
   8    -33.3796766 -0.268372E-10  0.417E-05    4.56     510.9  T

   *** convergence criteria satisfied after 8 iterations ***

         #    Occupation            Energy/Eh            Energy/eV
      -------------------------------------------------------------
         1        2.0000           -0.7088997             -19.2901
       ...           ...                  ...                  ...
        23        2.0000           -0.4656793             -12.6718
        24        2.0000           -0.4624615             -12.5842
        25        2.0000           -0.4551253             -12.3846
        26        2.0000           -0.4333906             -11.7932
        27        2.0000           -0.4076441             -11.0926
        28        2.0000           -0.4049873             -11.0203
        29        2.0000           -0.3906798             -10.6309 (HOMO)
        30                         -0.2229556              -6.0669 (LUMO)
        31                         -0.2124495              -5.7810
        32                          0.0049607               0.1350
        33                          0.0087989               0.2394
        34                          0.0853695               2.3230
       ...                                ...                  ...
        52                          0.6077424              16.5375
      -------------------------------------------------------------
                  HL-Gap            0.1677242 Eh            4.5640 eV
             Fermi-level           -0.3068177 Eh           -8.3489 eV

 SCC (total)                   0 d,  0 h,  0 min,  0.014 sec
 SCC setup                      ...        0 min,  0.003 sec ( 25.611%)
 Dispersion                     ...        0 min,  0.000 sec (  1.144%)
 classical contributions        ...        0 min,  0.000 sec (  0.157%)
 integral evaluation            ...        0 min,  0.001 sec (  5.235%)
 iterations                     ...        0 min,  0.007 sec ( 54.580%)
 molecular gradient             ...        0 min,  0.002 sec ( 12.240%)
 printout                       ...        0 min,  0.000 sec (  0.834%)

         :::::::::::::::::::::::::::::::::::::::::::::::::::::
         ::                     SUMMARY                     ::
         :::::::::::::::::::::::::::::::::::::::::::::::::::::
         :: total energy             -32.989552798792 Eh    ::
         :: total w/o Gsasa/hb       -32.987215167633 Eh    ::
         :: gradient norm              0.010338107261 Eh/a0 ::
         :: HOMO-LUMO gap              4.564008441508 eV    ::
         ::.................................................::
         :: SCC energy               -33.379575279334 Eh    ::
         :: -> isotropic ES            0.104790535971 Eh    ::
         :: -> anisotropic ES          0.002042399912 Eh    ::
         :: -> anisotropic XC          0.010680025034 Eh    ::
         :: -> dispersion             -0.015418695054 Eh    ::
         :: -> Gsolv                  -0.020506935836 Eh    ::
         ::    -> Gelec               -0.018169304677 Eh    ::
         ::    -> Gsasa                0.001612564400 Eh    ::
         ::    -> Ghb                 -0.005030955258 Eh    ::
         ::    -> Gshift               0.001080759698 Eh    ::
         :: repulsion energy           0.390022480542 Eh    ::
         :: add. restraining           0.000000000000 Eh    ::
         :: total charge               0.000000000000 e     ::
         :::::::::::::::::::::::::::::::::::::::::::::::::::::


Property printout bound to 'properties.out'

           -------------------------------------------------
          | TOTAL ENERGY              -32.989552798792 Eh   |
          | GRADIENT NORM               0.010338107261 Eh/α |
          | HOMO-LUMO GAP               4.564008441508 eV   |
           -------------------------------------------------

------------------------------------------------------------------------
 * finished run on 2026/09/28 at 23:19:02.311     
------------------------------------------------------------------------
 total:
 * wall-time:     0 d,  0 h,  0 min,  0.061 sec
 *  cpu-time:     0 d,  0 h,  0 min,  0.401 sec
 * ratio c/w:     6.554 speedup
 SCF:
 * wall-time:     0 d,  0 h,  0 min,  0.014 sec
 *  cpu-time:     0 d,  0 h,  0 min,  0.106 sec
 * ratio c/w:     7.671 speedup


-------------------------   --------------------
FINAL SINGLE POINT ENERGY       -32.989552798790
-------------------------   --------------------


-------------
DIPOLE MOMENT
-------------
                                X             Y             Z
Total Dipole Moment    :      0.97600       0.53700       1.06400
                        -----------------------------------------
Magnitude (a.u.)       :      1.54047
Magnitude (Debye)      :      3.91556


------------------
CARTESIAN GRADIENT
------------------

   1   C   :    0.000386807   -0.000325700    0.001065109
   2   C   :   -0.000478419   -0.001350005    0.000239307
   3   O   :   -0.000577857   -0.000647078    0.000616402
   4   N   :    0.003135042   -0.000385241   -0.003385817
   5   C   :   -0.001939726    0.002659205    0.002114690
   6   C   :    0.000010607   -0.000643927    0.000304203
   7   C   :   -0.000485027    0.001388684   -0.003829119
   8   O   :    0.000360914    0.001345608   -0.000390548
   9   N   :    0.002192208   -0.002636381    0.004816818
  10   C   :   -0.000868938   -0.000357181   -0.001091499
  11   H   :    0.000590454   -0.000054596   -0.000373995
  12   H   :   -0.000298719    0.000470366   -0.000332615
  13   H   :   -0.000483753   -0.000251894    0.000326293
  14   H   :   -0.001099867    0.001137067    0.000330718
  15   H   :    0.000302325    0.000132804    0.000173834
  16   H   :    0.000185243    0.000499205    0.000483169
  17   H   :    0.000444884   -0.000059814   -0.000567755
  18   H   :   -0.000437807    0.000148246    0.000092707
  19   H   :   -0.000358447   -0.001121785   -0.000374331
  20   H   :   -0.000034460   -0.000494529   -0.000324540
  21   H   :    0.000458489    0.000584231   -0.000310144
  22   H   :   -0.001003955   -0.000037284    0.000417113

Difference to translation invariance:
           :    0.0000000000   -0.0000000000    0.0000000000

Difference to rotation invariance:
           :    0.0000231353    0.0000083993   -0.0001955669

Norm of the Cartesian gradient     ...    0.0103381073
RMS gradient                       ...    0.0012725330
MAX gradient                       ...    0.0048168183
------------------------------------------------------------------------------
                         ORCA GEOMETRY RELAXATION STEP
------------------------------------------------------------------------------

Reading the OPT-File                    .... done
Getting information on internals        .... done
Copying old internal coords+grads       .... done
Making the new internal coordinates     .... (2022 redundants) done
Validating the new internal coordinates .... (2022 redundants) done
Calculating the B-matrix                .... done
Calculating the G,G- and P matrices     .... done
Transforming gradient to internals      .... done
Projecting the internal gradient        .... done
Number of atoms                         ....  22
Number of internal coordinates          ....  92
Current Energy                          ....   -32.989552799 Eh
Current gradient norm                   ....     0.010338107 Eh/bohr
Maximum allowed component of the step   ....  0.300
Current trust radius                    ....  0.675
Updating the Hessian (BFGS)             .... done
Forming the augmented Hessian           .... done
Diagonalizing the augmented Hessian     .... done
Last element of RFO vector              ....  0.968243339
Lowest eigenvalues of augmented Hessian:
 -0.000682579  0.006843168  0.011436664  0.011778409  0.012710291
Length of the computed step             ....  0.258209545
The final length of the internal step   ....  0.258209545
Converting the step to Cartesian space:
 Initial RMS(Int)=    0.0269202059
Transforming coordinates:
 Iter   0:  RMS(Cart)=    0.0323567438 RMS(Int)=    0.0269191236
 Iter   5:  RMS(Cart)=    0.0000000303 RMS(Int)=    0.0000000226
done
Storing new coordinates                 .... done
The predicted energy change is          ....    -0.000364044
Previously predicted energy change      ....    -0.000491228
Actually observed energy change         ....    -0.000655967
Ratio of predicted to observed change   ....     1.335359653
New trust radius                        ....     0.675000000

                                .--------------------.
          ----------------------|Geometry convergence|-------------------------
          Item                value                   Tolerance       Converged
          ---------------------------------------------------------------------
          Energy change      -0.0006559665            0.0000050000      NO
          RMS gradient        0.0008080738            0.0001000000      NO
          MAX gradient        0.0047493613            0.0003000000      NO
          RMS step            0.0269202059            0.0020000000      NO
          MAX step            0.0849961144            0.0040000000      NO
          -------------------------------------------------------------------------
          ........................................................
          Max(Bonds)      0.0086      Max(Angles)    0.70
          Max(Dihed)        4.87      Max(Improp)    0.00
          ---------------------------------------------------------------------

The optimization has not yet converged - more geometry cycles are needed


    ---------------------------------------------------------------------------
                         Redundant Internal Coordinates
                            (Angstroem and degrees)

        Definition                    Value    dE/dq     Step     New-Value
    ----------------------------------------------------------------------------
     1. B(C   1,C   0)                1.5053  0.000515 -0.0005    1.5047   
     2. B(O   2,C   1)                1.2323 -0.000644  0.0020    1.2343   
     3. B(N   3,C   1)                1.3391 -0.002774  0.0007    1.3399   
     4. B(C   4,N   3)                1.4501 -0.001419  0.0023    1.4524   
     5. B(C   5,C   4)                1.5223  0.000157  0.0008    1.5231   
     6. B(C   6,C   4)                1.5408 -0.000843  0.0032    1.5440   
     7. B(O   7,C   6)                1.2256 -0.001257  0.0020    1.2276   
     8. B(N   8,C   6)                1.3316 -0.004749  0.0033    1.3349   
     9. B(C   9,N   8)                1.4491  0.001382 -0.0015    1.4476   
    10. B(H  10,C   0)                1.0874 -0.000561  0.0017    1.0891   
    11. B(H  11,C   0)                1.0831 -0.000635  0.0008    1.0839   
    12. B(H  12,C   0)                1.0857 -0.000628  0.0015    1.0872   
    13. B(H  13,N   3)                1.0093 -0.000097  0.0008    1.0101   
    14. B(H  14,C   4)                1.0981 -0.000028  0.0008    1.0989   
    15. B(H  15,C   5)                1.0848 -0.000698  0.0017    1.0864   
    16. B(H  16,C   5)                1.0861 -0.000666  0.0013    1.0874   
    17. B(H  17,C   5)                1.0850 -0.000459  0.0006    1.0856   
    18. B(H  18,O   2)                2.0300  0.000346 -0.0086    2.0214   
    19. B(H  18,N   8)                1.0139 -0.000494  0.0015    1.0154   
    20. B(H  19,C   9)                1.0851 -0.000534  0.0010    1.0862   
    21. B(H  20,C   9)                1.0882 -0.000732  0.0020    1.0902   
    22. B(H  21,C   9)                1.0915  0.000017 -0.0006    1.0909   
    23. A(H  11,C   0,H  12)          110.20 -0.000014    0.36    110.56   
    24. A(C   1,C   0,H  11)          111.84  0.000118    0.00    111.84   
    25. A(C   1,C   0,H  12)          108.99  0.000013   -0.02    108.97   
    26. A(C   1,C   0,H  10)          108.63  0.000227   -0.16    108.48   
    27. A(H  10,C   0,H  12)          107.53 -0.000302   -0.26    107.28   
    28. A(H  10,C   0,H  11)          109.54 -0.000055    0.05    109.59   
    29. A(O   2,C   1,N   3)          121.74 -0.000932    0.07    121.81   
    30. A(C   0,C   1,N   3)          115.48 -0.000179    0.26    115.74   
    31. A(C   0,C   1,O   2)          122.78  0.001111   -0.28    122.50   
    32. A(C   4,N   3,H  13)          116.46  0.000279   -0.01    116.45   
    33. A(C   1,N   3,C   4)          123.53  0.000362    0.33    123.86   
    34. A(C   1,N   3,H  13)          119.19 -0.000753    0.68    119.87   
    35. A(C   5,C   4,C   6)          110.98 -0.000475    0.09    111.07   
    36. A(N   3,C   4,C   5)          109.67 -0.000739    0.26    109.93   
    37. A(N   3,C   4,C   6)          112.11  0.001651   -0.65    111.46   
    38. A(C   6,C   4,H  14)          107.06 -0.000251    0.05    107.11   
    39. A(C   5,C   4,H  14)          110.48  0.000279    0.39    110.87   
    40. A(N   3,C   4,H  14)          106.40 -0.000442   -0.13    106.28   
    41. A(H  16,C   5,H  17)          109.75 -0.000128    0.40    110.15   
    42. A(C   4,C   5,H  17)          110.32 -0.000096   -0.03    110.29   
    43. A(H  15,C   5,H  16)          107.80 -0.000063   -0.01    107.79   
    44. A(C   4,C   5,H  16)          110.07  0.000409   -0.37    109.70   
    45. A(C   4,C   5,H  15)          109.44 -0.000217   -0.19    109.25   
    46. A(H  15,C   5,H  17)          109.42  0.000094    0.20    109.62   
    47. A(O   7,C   6,N   8)          123.69 -0.000853    0.37    124.06   
    48. A(C   4,C   6,N   8)          113.65  0.000042   -0.10    113.55   
    49. A(C   4,C   6,O   7)          122.63  0.000796   -0.44    122.19   
    50. A(C   9,N   8,H  18)          118.32  0.000855   -0.14    118.17   
    51. A(C   6,N   8,H  18)          118.31 -0.000543    0.70    119.01   
    52. A(C   6,N   8,C   9)          122.22 -0.000457    0.44    122.66   
    53. A(N   8,C   9,H  19)          109.16 -0.000112    0.14    109.30   
    54. A(H  20,C   9,H  21)          108.30 -0.000550    0.01    108.30   
    55. A(H  19,C   9,H  21)          109.55 -0.000417    0.02    109.57   
    56. A(N   8,C   9,H  21)          111.46  0.001484   -0.12    111.34   
    57. A(H  19,C   9,H  20)          110.05 -0.000113    0.18    110.23   
    58. A(N   8,C   9,H  20)          108.30 -0.000299   -0.23    108.07   
    59. D(O   2,C   1,C   0,H  10)     78.47 -0.000345    1.89     80.36   
    60. D(O   2,C   1,C   0,H  11)   -160.51 -0.000186    1.85   -158.66   
    61. D(N   3,C   1,C   0,H  11)     19.37 -0.000008    1.21     20.58   
    62. D(N   3,C   1,C   0,H  10)   -101.65 -0.000166    1.25   -100.40   
    63. D(O   2,C   1,C   0,H  12)    -38.42 -0.000117    2.29    -36.13   
    64. D(H  13,N   3,C   1,C   0)     11.37  0.000553   -3.73      7.64   
    65. D(C   4,N   3,C   1,C   0)   -179.35 -0.000152    1.17   -178.18   
    66. D(H  13,N   3,C   1,O   2)   -168.75  0.000731   -4.37   -173.12   
    67. D(C   4,N   3,C   1,O   2)      0.53  0.000026    0.52      1.05   
    68. D(H  14,C   4,N   3,C   1)     33.50  0.000480   -0.55     32.95   
    69. D(C   6,C   4,N   3,H  13)     86.32 -0.000623    4.72     91.04   
    70. D(C   6,C   4,N   3,C   1)    -83.23  0.000167   -0.16    -83.38   
    71. D(C   5,C   4,N   3,H  13)    -37.43 -0.000632    4.87    -32.56   
    72. D(C   5,C   4,N   3,C   1)    153.02  0.000158   -0.01    153.01   
    73. D(H  15,C   5,C   4,N   3)   -177.36  0.000650    0.15   -177.22   
    74. D(H  16,C   5,C   4,H  14)   -178.68 -0.000205    0.72   -177.96   
    75. D(H  16,C   5,C   4,C   6)    -60.08 -0.000640    1.08    -59.00   
    76. D(H  16,C   5,C   4,N   3)     64.34  0.000613    0.49     64.83   
    77. D(H  15,C   5,C   4,H  14)    -60.38 -0.000169    0.38    -60.01   
    78. D(H  15,C   5,C   4,C   6)     58.22 -0.000604    0.73     58.95   
    79. D(N   8,C   6,C   4,C   5)   -177.21 -0.000460    2.45   -174.76   
    80. D(N   8,C   6,C   4,N   3)     59.77 -0.000343    2.51     62.28   
    81. D(O   7,C   6,C   4,H  14)    125.43 -0.000086    2.29    127.72   
    82. D(O   7,C   6,C   4,C   5)      4.79  0.000009    1.74      6.52   
    83. D(O   7,C   6,C   4,N   3)   -118.24  0.000126    1.80   -116.44   
    84. D(H  18,N   8,C   6,O   7)   -173.05  0.000296   -3.07   -176.13   
    85. D(H  18,N   8,C   6,C   4)      8.97  0.000732   -3.73      5.23   
    86. D(C   9,N   8,C   6,O   7)     -5.57 -0.000368    1.27     -4.29   
    87. D(C   9,N   8,C   6,C   4)    176.45  0.000069    0.61    177.06   
    88. D(H  19,C   9,N   8,H  18)    -37.08 -0.000295   -0.17    -37.26   
    89. D(H  19,C   9,N   8,C   6)    155.43  0.000536   -4.66    150.77   
    90. D(H  21,C   9,N   8,C   6)    -83.42  0.000893   -4.59    -88.01   
    91. D(H  20,C   9,N   8,H  18)   -156.90  0.000082   -0.33   -157.24   
    92. D(H  20,C   9,N   8,C   6)     35.61  0.000913   -4.82     30.79   
    ----------------------------------------------------------------------------

Geometry step timings:
Preparation and reading OPT file:      0.001 s ( 3.159 %)
Internal coordinates            :      0.000 s ( 0.197 %)
B/P matrices and projection     :      0.003 s ( 7.997 %)
Hessian update/contruction      :      0.015 s (49.336 %)
Making the step                 :      0.002 s ( 6.739 %)
Converting the step to Cartesian:      0.000 s ( 0.672 %)
Storing new data                :      0.005 s (15.025 %)
Checking convergence            :      0.000 s ( 0.290 %)
Final printing                  :      0.005 s (16.579 %)
Total time                      :      0.031 s

Time for energy+gradient        :      0.142 s
Time for complete geometry iter :      0.200 s

         *************************************************************
         *                GEOMETRY OPTIMIZATION CYCLE   5            *
         *************************************************************
---------------------------------
CARTESIAN COORDINATES (ANGSTROEM)
---------------------------------
  C     2.242783    1.745586    1.189750
  C     1.461987    1.034036    0.118180
  O     1.227062    1.544566   -0.980758
  N     1.047120   -0.202469    0.424668
  C     0.315166   -1.057186   -0.493371
  C     0.567429   -2.520513   -0.154254
  C    -1.194890   -0.736305   -0.480380
  O    -2.035088   -1.551505   -0.110895
  N    -1.480129    0.505414   -0.878671
  C    -2.838033    0.992004   -1.000140
  H     1.576099    2.439926    1.699221
  H     2.664340    1.052733    1.908866
  H     3.027513    2.335428    0.722495
  H     1.164030   -0.551657    1.365206
  H     0.687471   -0.818679   -1.499349
  H     0.054852   -3.149177   -0.877001
  H     0.160099   -2.744375    0.828819
  H     1.631622   -2.733843   -0.175568
  H    -0.728696    1.094595   -1.224433
  H    -2.852575    2.063631   -0.823705
  H    -3.448776    0.479189   -0.256731
  H    -3.249381    0.778600   -1.987687

----------------------------
CARTESIAN COORDINATES (A.U.)
----------------------------
  NO LB    ZA    FRAG    MASS        X           Y           Z
   0 C   6.0000    0    12.011    4.238247    3.298680    2.248302
   1 C   6.0000    0    12.011    2.762755    1.954044    0.223327
   2 O   8.0000    0    15.999    2.318811    2.918807   -1.853364
   3 N   7.0000    0    14.007    1.978769   -0.382612    0.802507
   4 C   6.0000    0    12.011    0.595577   -1.997792   -0.932337
   5 C   6.0000    0    12.011    1.072285   -4.763079   -0.291499
   6 C   6.0000    0    12.011   -2.258015   -1.391415   -0.907787
   7 O   8.0000    0    15.999   -3.845759   -2.931919   -0.209561
   8 N   7.0000    0    14.007   -2.797039    0.955095   -1.660448
   9 C   6.0000    0    12.011   -5.363105    1.874616   -1.889990
  10 H   1.0000    0     1.008    2.978396    4.610791    3.211062
  11 H   1.0000    0     1.008    5.034874    1.989378    3.607233
  12 H   1.0000    0     1.008    5.721170    4.413319    1.365318
  13 H   1.0000    0     1.008    2.199699   -1.042481    2.579865
  14 H   1.0000    0     1.008    1.299132   -1.547078   -2.833358
  15 H   1.0000    0     1.008    0.103654   -5.951082   -1.657291
  16 H   1.0000    0     1.008    0.302544   -5.186118    1.566242
  17 H   1.0000    0     1.008    3.083319   -5.166214   -0.331775
  18 H   1.0000    0     1.008   -1.377036    2.068485   -2.313843
  19 H   1.0000    0     1.008   -5.390585    3.899698   -1.556577
  20 H   1.0000    0     1.008   -6.517243    0.905536   -0.485151
  21 H   1.0000    0     1.008   -6.140440    1.471341   -3.756184

      -----------------------------------------------------------      
     |                   =====================                   |     
     |                           x T B                           |     
     |                   =====================                   |     
     |                         S. Grimme                         |     
     |          Mulliken Center for Theoretical Chemistry        |     
     |                    University of Bonn                     |     
      -----------------------------------------------------------      

   * xtb version 6.7.1 (edcfbbe) compiled by 'albert@albert-system' on 2024-07-22

   xtb is free software: you can redistribute it and/or modify it under
   the terms of the GNU Lesser General Public License as published by
   the Free Software Foundation, either version 3 of the License, or
   (at your option) any later version.
   
   xtb is distributed in the hope that it will be useful,
   but WITHOUT ANY WARRANTY; without even the implied warranty of
   MERCHANTABILITY or FITNESS FOR A PARTICULAR PURPOSE.  See the
   GNU Lesser General Public License for more details.
   
   Cite this work as:
   * C. Bannwarth, E. Caldeweyher, S. Ehlert, A. Hansen, P. Pracht,
     J. Seibert, S. Spicher, S. Grimme, WIREs Comput. Mol. Sci., 2020, 11,
     e01493. DOI: 10.1002/wcms.1493
   
   for GFN2-xTB:
   * C. Bannwarth, S. Ehlert and S. Grimme., J. Chem. Theory Comput., 2019,
     15, 1652-1671. DOI: 10.1021/acs.jctc.8b01176
   for GFN1-xTB:
   * S. Grimme, C. Bannwarth, P. Shushkov, J. Chem. Theory Comput., 2017,
     13, 1989-2009. DOI: 10.1021/acs.jctc.7b00118
   for GFN0-xTB:
   * P. Pracht, E. Caldeweyher, S. Ehlert, S. Grimme, ChemRxiv, 2019, preprint.
     DOI: 10.26434/chemrxiv.8326202.v1
   for GFN-FF:
   * S. Spicher and S. Grimme, Angew. Chem. Int. Ed., 2020, 59, 15665-15673.
     DOI: 10.1002/anie.202004239
   
   for ALPB and GBSA implicit solvation:
   * S. Ehlert, M. Stahn, S. Spicher, S. Grimme, J. Chem. Theory Comput.,
     2021, 17, 4250-4261. DOI: 10.1021/acs.jctc.1c00471
   
   for ddCOSMO and CPCM-X implicit solvation:
   * M. Stahn, S. Ehlert, S. Grimme, J. Phys. Chem. A,
     2023, XX, XXXX-XXXX. DOI: 10.1021/acs.jpca.3c04382
   
   for DFT-D4:
   * E. Caldeweyher, C. Bannwarth and S. Grimme, J. Chem. Phys., 2017,
     147, 034112. DOI: 10.1063/1.4993215
   * E. Caldeweyher, S. Ehlert, A. Hansen, H. Neugebauer, S. Spicher,
     C. Bannwarth and S. Grimme, J. Chem. Phys., 2019, 150, 154122.
     DOI: 10.1063/1.5090222
   * E. Caldeweyher, J.-M. Mewes, S. Ehlert and S. Grimme, Phys. Chem. Chem. Phys.
     2020, 22, 8499-8512. DOI: 10.1039/D0CP00502A
   
   for sTDA-xTB:
   * S. Grimme and C. Bannwarth, J. Chem. Phys., 2016, 145, 054103.
     DOI: 10.1063/1.4959605
   
   in the mass-spec context:
   * V. Asgeirsson, C. Bauer and S. Grimme, Chem. Sci., 2017, 8, 4879.
     DOI: 10.1039/c7sc00601b
   * J. Koopman and S. Grimme, ACS Omega 2019, 4, 12, 15120-15133.
     DOI: 10.1021/acsomega.9b02011
   
   for metadynamics refer to:
   * S. Grimme, J. Chem. Theory Comput., 2019, 155, 2847-2862
     DOI: 10.1021/acs.jctc.9b00143
   
   for SPH calculations refer to:
   * S. Spicher and S. Grimme, J. Chem. Theory Comput., 2021, 17, 1701-1714
     DOI: 10.1021/acs.jctc.0c01306
   
   for ONIOM refer to:
   * C. Plett, A. Katbashev, S. Ehlert, S. Grimme, M. Bursch,
     Phys. Chem. Chem. Phys., 2023, 25, 17860-17868. DOI: 10.1039/D3CP02178E
   
   for DIPRO refer to:
   * J. Kohn, N. Gildemeister, S. Grimme, D. Fazzi, A. Hansen,
     J. Chem. Phys., 2023, just accepted.
   
   for PTB refer to:
   * S. Grimme, M. Mueller, A. Hansen, J. Chem. Phys., 2023, 158, 124111.
     DOI: 10.1063/5.0137838
   
   with help from (in alphabetical order)
   P. Atkinson, C. Bannwarth, F. Bohle, G. Brandenburg, E. Caldeweyher
   M. Checinski, S. Dohm, S. Ehlert, S. Ehrlich, I. Gerasimov, C. Hölzer
   A. Katbashev, J. Kohn, J. Koopman, C. Lavigne, S. Lehtola, F. März, M. Müller,
   F. Musil, H. Neugebauer, J. Pisarek, C. Plett, P. Pracht, F. Pultar,
   J. Seibert, P. Shushkov, S. Spicher, M. Stahn, M. Steiner, T. Strunk,
   J. Stückrath, T. Rose, and J. Unsleber
   
 * started run on 2026/09/28 at 23:19:02.447     
   ID    Z sym.   atoms
    1    6 C      1, 2, 5-7, 10
    2    8 O      3, 8
    3    7 N      4, 9
    4    1 H      11-22

           -------------------------------------------------
          |                Calculation Setup                |
           -------------------------------------------------

          program call               : /app1/ebapps/arches/flat-avx2/software/ORCA/6.1.0-gompi-2023b-avx2/bin/otool_xtb o01-xtb-opt-freq_XTB.xyz --grad -c 0 -u 0 -P 8 --namespace o01-xtb-opt-freq --input o01-xtb-opt-freq_XTB.input.tmp --alpb WATER --acc 0.200000
          hostname                   : IN-006
          calculation namespace      : o01-xtb-opt-freq
          coordinate file            : o01-xtb-opt-freq_XTB.xyz
          omp threads                :                     8


           -------------------------------------------------
          |                 G F N 2 - x T B                 |
           -------------------------------------------------

        Reference                      10.1021/acs.jctc.8b01176
      * Hamiltonian:
        H0-scaling (s, p, d)           1.850000    2.230000    2.230000
        zeta-weighting                 0.500000
      * Dispersion:
        s8                             2.700000
        a1                             0.520000
        a2                             5.000000
        s9                             5.000000
      * Repulsion:
        kExp                           1.500000    1.000000
        rExp                           1.000000
      * Coulomb:
        alpha                          2.000000
        third order                    shell-resolved
        anisotropic                    true
        a3                             3.000000
        a5                             4.000000
        cn-shift                       1.200000
        cn-exp                         4.000000
        max-rad                        5.000000

      * Solvation model:               ALPB
        Solvent                        WATER
        Parameter file                 internal GFN2-xTB/ALPB
        Dielectric constant                8.0200E+01
        Reference state                gsolv [1 M gas/solution]
        Free energy shift                  1.0808E-03 Eh       6.7819E-01 kcal/mol
        Temperature                        2.9815E+02 K
        Density                            1.0000E+00 kg/L
        Solvent mass                       1.8000E+01 g/mol
        Interaction kernel             P16
        Born radius scaling (c1)           1.4744E+00
        Born radii integrator          GBOBC
        Born offset                        0.0000E+00 a0       0.0000E+00 AA
        H-bond correction              true
        Ion screening                  false
        Surface tension                    1.0000E-05 Eh       1.5569E+01 dyn/cm
        Grid points                               230 per atom
q/qsh data taken from xtbrestart
CAMM data taken from xtbrestart

          ...................................................
          :                      SETUP                      :
          :.................................................:
          :  # basis functions                  52          :
          :  # atomic orbitals                  52          :
          :  # shells                           32          :
          :  # electrons                        58          :
          :  max. iterations                   250          :
          :  Hamiltonian                  GFN2-xTB          :
          :  restarted?                       true          :
          :  GBSA solvation                   true          :
          :  PC potential                    false          :
          :  electronic temp.          300.0000000     K    :
          :  accuracy                    0.2000000          :
          :  -> integral cutoff          0.3198970E+02      :
          :  -> integral neglect         0.2000000E-08      :
          :  -> SCF convergence          0.2000000E-06 Eh   :
          :  -> wf. convergence          0.2000000E-04 e    :
          :  Broyden damping             0.4000000          :
          :  net charge                          0          :
          :  unpaired electrons                  0          :
          ...................................................

 iter      E             dE          RMSdq      gap      omega  full diag
   1    -33.3762171 -0.333762E+02  0.113E-01    4.57       0.0  T
   2    -33.3762229 -0.586162E-05  0.652E-02    4.57       1.0  T
   3    -33.3762237 -0.782751E-06  0.958E-03    4.57       2.2  T
   4    -33.3762242 -0.532072E-06  0.377E-03    4.57       5.7  T
   5    -33.3762243 -0.334572E-07  0.178E-03    4.57      12.0  T
   6    -33.3762243 -0.510582E-08  0.364E-04    4.57      58.5  T
   7    -33.3762243 -0.201332E-09  0.155E-04    4.57     137.3  T
   8    -33.3762243 -0.340563E-10  0.444E-05    4.57     480.4  T

   *** convergence criteria satisfied after 8 iterations ***

         #    Occupation            Energy/Eh            Energy/eV
      -------------------------------------------------------------
         1        2.0000           -0.7081681             -19.2702
       ...           ...                  ...                  ...
        23        2.0000           -0.4657643             -12.6741
        24        2.0000           -0.4625220             -12.5859
        25        2.0000           -0.4552883             -12.3890
        26        2.0000           -0.4329529             -11.7812
        27        2.0000           -0.4075186             -11.0891
        28        2.0000           -0.4040994             -10.9961
        29        2.0000           -0.3906393             -10.6298 (HOMO)
        30                         -0.2226203              -6.0578 (LUMO)
        31                         -0.2133063              -5.8044
        32                          0.0030598               0.0833
        33                          0.0066923               0.1821
        34                          0.0846000               2.3021
       ...                                ...                  ...
        52                          0.6023578              16.3910
      -------------------------------------------------------------
                  HL-Gap            0.1680190 Eh            4.5720 eV
             Fermi-level           -0.3066298 Eh           -8.3438 eV

 SCC (total)                   0 d,  0 h,  0 min,  0.011 sec
 SCC setup                      ...        0 min,  0.000 sec (  3.731%)
 Dispersion                     ...        0 min,  0.000 sec (  1.508%)
 classical contributions        ...        0 min,  0.000 sec (  0.205%)
 integral evaluation            ...        0 min,  0.001 sec (  6.941%)
 iterations                     ...        0 min,  0.008 sec ( 70.823%)
 molecular gradient             ...        0 min,  0.002 sec ( 15.612%)
 printout                       ...        0 min,  0.000 sec (  0.990%)

         :::::::::::::::::::::::::::::::::::::::::::::::::::::
         ::                     SUMMARY                     ::
         :::::::::::::::::::::::::::::::::::::::::::::::::::::
         :: total energy             -32.990005184333 Eh    ::
         :: total w/o Gsasa/hb       -32.987654895607 Eh    ::
         :: gradient norm              0.008437651950 Eh/a0 ::
         :: HOMO-LUMO gap              4.572029378651 eV    ::
         ::.................................................::
         :: SCC energy               -33.376123235666 Eh    ::
         :: -> isotropic ES            0.105039252323 Eh    ::
         :: -> anisotropic ES          0.001922104468 Eh    ::
         :: -> anisotropic XC          0.010815084675 Eh    ::
         :: -> dispersion             -0.015400555843 Eh    ::
         :: -> Gsolv                  -0.020615270108 Eh    ::
         ::    -> Gelec               -0.018264981381 Eh    ::
         ::    -> Gsasa                0.001605241280 Eh    ::
         ::    -> Ghb                 -0.005036289704 Eh    ::
         ::    -> Gshift               0.001080759698 Eh    ::
         :: repulsion energy           0.386118051333 Eh    ::
         :: add. restraining           0.000000000000 Eh    ::
         :: total charge              -0.000000000000 e     ::
         :::::::::::::::::::::::::::::::::::::::::::::::::::::


Property printout bound to 'properties.out'

           -------------------------------------------------
          | TOTAL ENERGY              -32.990005184333 Eh   |
          | GRADIENT NORM               0.008437651950 Eh/α |
          | HOMO-LUMO GAP               4.572029378651 eV   |
           -------------------------------------------------

------------------------------------------------------------------------
 * finished run on 2026/09/28 at 23:19:02.508     
------------------------------------------------------------------------
 total:
 * wall-time:     0 d,  0 h,  0 min,  0.059 sec
 *  cpu-time:     0 d,  0 h,  0 min,  0.395 sec
 * ratio c/w:     6.661 speedup
 SCF:
 * wall-time:     0 d,  0 h,  0 min,  0.011 sec
 *  cpu-time:     0 d,  0 h,  0 min,  0.086 sec
 * ratio c/w:     7.905 speedup


-------------------------   --------------------
FINAL SINGLE POINT ENERGY       -32.990005184330
-------------------------   --------------------


-------------
DIPOLE MOMENT
-------------
                                X             Y             Z
Total Dipole Moment    :      1.02000       0.50000       1.01900
                        -----------------------------------------
Magnitude (a.u.)       :      1.52603
Magnitude (Debye)      :      3.87885


------------------
CARTESIAN GRADIENT
------------------

   1   C   :    0.001131316   -0.001273282    0.000385367
   2   C   :   -0.001571045   -0.000273831    0.002651311
   3   O   :    0.000445679    0.000475318   -0.001713994
   4   N   :    0.001783938    0.000020912   -0.003035390
   5   C   :   -0.001261634    0.000240835    0.001915530
   6   C   :    0.001075273   -0.001784223    0.000511597
   7   C   :   -0.000180909    0.000882469   -0.002396065
   8   O   :   -0.000894478   -0.002130733    0.000799043
   9   N   :    0.000765032    0.000516855    0.002777702
  10   C   :    0.000146271    0.000496467   -0.002270059
  11   H   :   -0.000015170    0.000763611   -0.000316316
  12   H   :   -0.000291539   -0.000205739    0.000086613
  13   H   :   -0.000071446    0.000758227   -0.000170021
  14   H   :   -0.000333386   -0.000181167    0.000692696
  15   H   :    0.000587937    0.000765088   -0.000111728
  16   H   :   -0.000633412    0.000043261   -0.000300475
  17   H   :   -0.000307145    0.000228609    0.000155690
  18   H   :    0.000248152    0.000311218   -0.000066919
  19   H   :   -0.000078030    0.000766561   -0.000383299
  20   H   :    0.000170331    0.000103696   -0.000370436
  21   H   :    0.000146612   -0.000349853    0.000432310
  22   H   :   -0.000862346   -0.000174300    0.000726845

Difference to translation invariance:
           :    0.0000000000   -0.0000000000   -0.0000000000

Difference to rotation invariance:
           :    0.0001609572   -0.0000510370   -0.0002231001

Norm of the Cartesian gradient     ...    0.0084376519
RMS gradient                       ...    0.0010386032
MAX gradient                       ...    0.0030353902
------------------------------------------------------------------------------
                         ORCA GEOMETRY RELAXATION STEP
------------------------------------------------------------------------------

Reading the OPT-File                    .... done
Getting information on internals        .... done
Copying old internal coords+grads       .... done
Making the new internal coordinates     .... (2022 redundants) done
Validating the new internal coordinates .... (2022 redundants) done
Calculating the B-matrix                .... done
Calculating the G,G- and P matrices     .... done
Transforming gradient to internals      .... done
Projecting the internal gradient        .... done
Number of atoms                         ....  22
Number of internal coordinates          ....  92
Current Energy                          ....   -32.990005184 Eh
Current gradient norm                   ....     0.008437652 Eh/bohr
Maximum allowed component of the step   ....  0.300
Current trust radius                    ....  0.675
Updating the Hessian (BFGS)             .... done
Forming the augmented Hessian           .... done
Diagonalizing the augmented Hessian     .... done
Last element of RFO vector              ....  0.960551907
Lowest eigenvalues of augmented Hessian:
 -0.000448076  0.003948931  0.011063697  0.011694863  0.012670850
Length of the computed step             ....  0.289521847
The final length of the internal step   ....  0.289521847
Converting the step to Cartesian space:
 Initial RMS(Int)=    0.0301847391
Transforming coordinates:
 Iter   0:  RMS(Cart)=    0.0410703441 RMS(Int)=    0.0301773371
 Iter   5:  RMS(Cart)=    0.0000000177 RMS(Int)=    0.0000000128
done
Storing new coordinates                 .... done
The predicted energy change is          ....    -0.000242818
Previously predicted energy change      ....    -0.000364044
Actually observed energy change         ....    -0.000452386
Ratio of predicted to observed change   ....     1.242667912
New trust radius                        ....     0.700000000

                                .--------------------.
          ----------------------|Geometry convergence|-------------------------
          Item                value                   Tolerance       Converged
          ---------------------------------------------------------------------
          Energy change      -0.0004523855            0.0000050000      NO
          RMS gradient        0.0005548730            0.0001000000      NO
          MAX gradient        0.0022683478            0.0003000000      NO
          RMS step            0.0301847391            0.0020000000      NO
          MAX step            0.1021623864            0.0040000000      NO
          -------------------------------------------------------------------------
          ........................................................
          Max(Bonds)      0.0234      Max(Angles)    0.72
          Max(Dihed)        5.85      Max(Improp)    0.00
          ---------------------------------------------------------------------

The optimization has not yet converged - more geometry cycles are needed


    ---------------------------------------------------------------------------
                         Redundant Internal Coordinates
                            (Angstroem and degrees)

        Definition                    Value    dE/dq     Step     New-Value
    ----------------------------------------------------------------------------
     1. B(C   1,C   0)                1.5047  0.000398 -0.0008    1.5039   
     2. B(O   2,C   1)                1.2343  0.001720  0.0006    1.2349   
     3. B(N   3,C   1)                1.3398 -0.000282 -0.0001    1.3397   
     4. B(C   4,N   3)                1.4523 -0.000586  0.0023    1.4546   
     5. B(C   5,C   4)                1.5231  0.001285 -0.0014    1.5218   
     6. B(C   6,C   4)                1.5438  0.000424  0.0015    1.5454   
     7. B(O   7,C   6)                1.2276  0.002268  0.0001    1.2277   
     8. B(N   8,C   6)                1.3349  0.000904  0.0002    1.3351   
     9. B(C   9,N   8)                1.4476  0.000524 -0.0014    1.4461   
    10. B(H  10,C   0)                1.0891  0.000349  0.0006    1.0897   
    11. B(H  11,C   0)                1.0839  0.000072  0.0003    1.0842   
    12. B(H  12,C   0)                1.0872  0.000434  0.0002    1.0874   
    13. B(H  13,N   3)                1.0101  0.000669 -0.0004    1.0097   
    14. B(H  14,C   4)                1.0989  0.000467 -0.0002    1.0986   
    15. B(H  15,C   5)                1.0864  0.000472  0.0003    1.0867   
    16. B(H  16,C   5)                1.0874  0.000210  0.0004    1.0878   
    17. B(H  17,C   5)                1.0856  0.000185 -0.0000    1.0856   
    18. B(H  18,O   2)                2.0216  0.000405 -0.0234    1.9982   
    19. B(H  18,N   8)                1.0155  0.000842  0.0000    1.0156   
    20. B(H  19,C   9)                1.0862  0.000037  0.0006    1.0867   
    21. B(H  20,C   9)                1.0902  0.000379  0.0007    1.0909   
    22. B(H  21,C   9)                1.0909 -0.000298  0.0000    1.0909   
    23. A(H  11,C   0,H  12)          110.56  0.000378    0.18    110.74   
    24. A(C   1,C   0,H  11)          111.84 -0.000141    0.01    111.85   
    25. A(C   1,C   0,H  12)          108.97  0.000087   -0.03    108.94   
    26. A(C   1,C   0,H  10)          108.48 -0.000074   -0.08    108.40   
    27. A(H  10,C   0,H  12)          107.28 -0.000537   -0.04    107.24   
    28. A(H  10,C   0,H  11)          109.59  0.000261   -0.05    109.53   
    29. A(O   2,C   1,N   3)          121.77 -0.000397    0.01    121.78   
    30. A(C   0,C   1,N   3)          115.73  0.000438    0.11    115.85   
    31. A(C   0,C   1,O   2)          122.49 -0.000048   -0.21    122.28   
    32. A(C   4,N   3,H  13)          116.33 -0.000300   -0.00    116.32   
    33. A(C   1,N   3,C   4)          123.69  0.000327    0.08    123.77   
    34. A(C   1,N   3,H  13)          119.75 -0.000052    0.49    120.24   
    35. A(C   5,C   4,C   6)          111.09 -0.000259    0.03    111.11   
    36. A(N   3,C   4,C   5)          109.95  0.000059    0.13    110.08   
    37. A(N   3,C   4,C   6)          111.43  0.000710   -0.72    110.71   
    38. A(C   6,C   4,H  14)          107.10 -0.000103    0.08    107.17   
    39. A(C   5,C   4,H  14)          110.87  0.000418    0.27    111.14   
    40. A(N   3,C   4,H  14)          106.27 -0.000841    0.22    106.50   
    41. A(H  16,C   5,H  17)          110.15  0.000406    0.22    110.38   
    42. A(C   4,C   5,H  17)          110.29 -0.000291    0.01    110.30   
    43. A(H  15,C   5,H  16)          107.79  0.000223   -0.00    107.79   
    44. A(C   4,C   5,H  16)          109.70 -0.000349   -0.21    109.49   
    45. A(C   4,C   5,H  15)          109.25 -0.000450   -0.07    109.18   
    46. A(H  15,C   5,H  17)          109.62  0.000467    0.04    109.65   
    47. A(O   7,C   6,N   8)          124.14  0.001142    0.22    124.36   
    48. A(C   4,C   6,N   8)          113.57 -0.000169   -0.04    113.53   
    49. A(C   4,C   6,O   7)          122.27 -0.000974   -0.08    122.20   
    50. A(C   9,N   8,H  18)          118.07 -0.000341   -0.02    118.04   
    51. A(C   6,N   8,H  18)          118.89  0.000538    0.44    119.34   
    52. A(C   6,N   8,C   9)          122.56 -0.000237    0.39    122.95   
    53. A(N   8,C   9,H  19)          109.30 -0.000133    0.14    109.45   
    54. A(H  20,C   9,H  21)          108.30 -0.000538    0.13    108.44   
    55. A(H  19,C   9,H  21)          109.57 -0.000136   -0.04    109.54   
    56. A(N   8,C   9,H  21)          111.34  0.001437   -0.34    111.00   
    57. A(H  19,C   9,H  20)          110.23  0.000353    0.08    110.31   
    58. A(N   8,C   9,H  20)          108.07 -0.000989    0.02    108.09   
    59. D(O   2,C   1,C   0,H  10)     80.36 -0.000121    1.28     81.64   
    60. D(O   2,C   1,C   0,H  11)   -158.66  0.000067    1.16   -157.50   
    61. D(N   3,C   1,C   0,H  11)     20.58 -0.000499    3.22     23.80   
    62. D(N   3,C   1,C   0,H  10)   -100.40 -0.000687    3.34    -97.06   
    63. D(O   2,C   1,C   0,H  12)    -36.13  0.000511    1.38    -34.75   
    64. D(H  13,N   3,C   1,C   0)      7.62  0.000425   -4.51      3.12   
    65. D(C   4,N   3,C   1,C   0)   -178.16  0.000101    0.05   -178.11   
    66. D(H  13,N   3,C   1,O   2)   -173.13 -0.000133   -2.43   -175.56   
    67. D(C   4,N   3,C   1,O   2)      1.09 -0.000457    2.12      3.21   
    68. D(H  14,C   4,N   3,C   1)     32.98 -0.000022   -0.40     32.57   
    69. D(C   6,C   4,N   3,H  13)     91.04 -0.000081    4.20     95.25   
    70. D(C   6,C   4,N   3,C   1)    -83.35  0.000222   -0.25    -83.60   
    71. D(C   5,C   4,N   3,H  13)    -32.57 -0.000286    4.57    -28.00   
    72. D(C   5,C   4,N   3,C   1)    153.03  0.000016    0.12    153.15   
    73. D(H  15,C   5,C   4,N   3)   -177.22  0.000350    0.24   -176.98   
    74. D(H  16,C   5,C   4,H  14)   -177.96 -0.000195    0.91   -177.05   
    75. D(H  16,C   5,C   4,C   6)    -59.00 -0.000219    1.20    -57.79   
    76. D(H  16,C   5,C   4,N   3)     64.82  0.000550    0.40     65.22   
    77. D(H  15,C   5,C   4,H  14)    -60.00 -0.000395    0.76    -59.25   
    78. D(H  15,C   5,C   4,C   6)     58.96 -0.000419    1.05     60.01   
    79. D(N   8,C   6,C   4,C   5)   -174.78 -0.000156    2.42   -172.36   
    80. D(N   8,C   6,C   4,N   3)     62.25 -0.000553    2.74     64.99   
    81. D(O   7,C   6,C   4,H  14)    127.73  0.000220    3.10    130.83   
    82. D(O   7,C   6,C   4,C   5)      6.53 -0.000073    2.71      9.24   
    83. D(O   7,C   6,C   4,N   3)   -116.44 -0.000471    3.03   -113.41   
    84. D(H  18,N   8,C   6,O   7)   -176.14  0.000058   -3.37   -179.51   
    85. D(H  18,N   8,C   6,C   4)      5.19  0.000175   -3.07      2.12   
    86. D(C   9,N   8,C   6,O   7)     -4.26 -0.000304    1.29     -2.97   
    87. D(C   9,N   8,C   6,C   4)    177.07 -0.000187    1.59    178.66   
    88. D(H  19,C   9,N   8,H  18)    -37.27  0.000044   -0.98    -38.25   
    89. D(H  19,C   9,N   8,C   6)    150.79  0.000336   -5.66    145.13   
    90. D(H  21,C   9,N   8,C   6)    -88.02  0.001005   -5.81    -93.83   
    91. D(H  20,C   9,N   8,H  18)   -157.25  0.000280   -1.17   -158.42   
    92. D(H  20,C   9,N   8,C   6)     30.81  0.000572   -5.85     24.95   
    ----------------------------------------------------------------------------

Geometry step timings:
Preparation and reading OPT file:      0.001 s ( 2.560 %)
Internal coordinates            :      0.000 s ( 0.192 %)
B/P matrices and projection     :      0.002 s ( 7.687 %)
Hessian update/contruction      :      0.016 s (49.682 %)
Making the step                 :      0.002 s ( 6.618 %)
Converting the step to Cartesian:      0.000 s ( 0.713 %)
Storing new data                :      0.005 s (15.636 %)
Checking convergence            :      0.000 s ( 0.290 %)
Final printing                  :      0.005 s (16.616 %)
Total time                      :      0.032 s

Time for energy+gradient        :      0.139 s
Time for complete geometry iter :      0.201 s

         *************************************************************
         *                GEOMETRY OPTIMIZATION CYCLE   6            *
         *************************************************************
---------------------------------
CARTESIAN COORDINATES (ANGSTROEM)
---------------------------------
  C     2.235507    1.748777    1.189237
  C     1.458615    1.031164    0.120013
  O     1.194862    1.553596   -0.967387
  N     1.043828   -0.204748    0.428496
  C     0.315527   -1.063638   -0.492185
  C     0.562556   -2.525576   -0.149486
  C    -1.193963   -0.733634   -0.468893
  O    -2.029766   -1.526064   -0.043825
  N    -1.477740    0.490955   -0.918677
  C    -2.828767    0.998423   -1.010899
  H     1.551631    2.400426    1.732507
  H     2.703557    1.057282    1.880770
  H     2.980470    2.385019    0.717385
  H     1.216177   -0.582287    1.348955
  H     0.684220   -0.825033   -1.499222
  H     0.055799   -3.153490   -0.877349
  H     0.141562   -2.745041    0.829262
  H     1.626627   -2.740279   -0.160021
  H    -0.724315    1.080255   -1.260056
  H    -2.831293    2.062717   -0.791178
  H    -3.442726    0.460791   -0.286949
  H    -3.242366    0.830385   -2.006238

----------------------------
CARTESIAN COORDINATES (A.U.)
----------------------------
  NO LB    ZA    FRAG    MASS        X           Y           Z
   0 C   6.0000    0    12.011    4.224495    3.304709    2.247331
   1 C   6.0000    0    12.011    2.756384    1.948617    0.226792
   2 O   8.0000    0    15.999    2.257962    2.935871   -1.828096
   3 N   7.0000    0    14.007    1.972549   -0.386918    0.809741
   4 C   6.0000    0    12.011    0.596260   -2.009984   -0.930094
   5 C   6.0000    0    12.011    1.063077   -4.772646   -0.282487
   6 C   6.0000    0    12.011   -2.256262   -1.386367   -0.886079
   7 O   8.0000    0    15.999   -3.835702   -2.883843   -0.082818
   8 N   7.0000    0    14.007   -2.792525    0.927770   -1.736048
   9 C   6.0000    0    12.011   -5.345594    1.886747   -1.910322
  10 H   1.0000    0     1.008    2.932157    4.536147    3.273965
  11 H   1.0000    0     1.008    5.108983    1.997973    3.554141
  12 H   1.0000    0     1.008    5.632272    4.507033    1.355660
  13 H   1.0000    0     1.008    2.298242   -1.100362    2.549156
  14 H   1.0000    0     1.008    1.292989   -1.559086   -2.833119
  15 H   1.0000    0     1.008    0.105444   -5.959232   -1.657949
  16 H   1.0000    0     1.008    0.267513   -5.187375    1.567079
  17 H   1.0000    0     1.008    3.073880   -5.178377   -0.302396
  18 H   1.0000    0     1.008   -1.368756    2.041387   -2.381161
  19 H   1.0000    0     1.008   -5.350368    3.897970   -1.495109
  20 H   1.0000    0     1.008   -6.505808    0.870768   -0.542255
  21 H   1.0000    0     1.008   -6.127183    1.569200   -3.791240

      -----------------------------------------------------------      
     |                   =====================                   |     
     |                           x T B                           |     
     |                   =====================                   |     
     |                         S. Grimme                         |     
     |          Mulliken Center for Theoretical Chemistry        |     
     |                    University of Bonn                     |     
      -----------------------------------------------------------      

   * xtb version 6.7.1 (edcfbbe) compiled by 'albert@albert-system' on 2024-07-22

   xtb is free software: you can redistribute it and/or modify it under
   the terms of the GNU Lesser General Public License as published by
   the Free Software Foundation, either version 3 of the License, or
   (at your option) any later version.
   
   xtb is distributed in the hope that it will be useful,
   but WITHOUT ANY WARRANTY; without even the implied warranty of
   MERCHANTABILITY or FITNESS FOR A PARTICULAR PURPOSE.  See the
   GNU Lesser General Public License for more details.
   
   Cite this work as:
   * C. Bannwarth, E. Caldeweyher, S. Ehlert, A. Hansen, P. Pracht,
     J. Seibert, S. Spicher, S. Grimme, WIREs Comput. Mol. Sci., 2020, 11,
     e01493. DOI: 10.1002/wcms.1493
   
   for GFN2-xTB:
   * C. Bannwarth, S. Ehlert and S. Grimme., J. Chem. Theory Comput., 2019,
     15, 1652-1671. DOI: 10.1021/acs.jctc.8b01176
   for GFN1-xTB:
   * S. Grimme, C. Bannwarth, P. Shushkov, J. Chem. Theory Comput., 2017,
     13, 1989-2009. DOI: 10.1021/acs.jctc.7b00118
   for GFN0-xTB:
   * P. Pracht, E. Caldeweyher, S. Ehlert, S. Grimme, ChemRxiv, 2019, preprint.
     DOI: 10.26434/chemrxiv.8326202.v1
   for GFN-FF:
   * S. Spicher and S. Grimme, Angew. Chem. Int. Ed., 2020, 59, 15665-15673.
     DOI: 10.1002/anie.202004239
   
   for ALPB and GBSA implicit solvation:
   * S. Ehlert, M. Stahn, S. Spicher, S. Grimme, J. Chem. Theory Comput.,
     2021, 17, 4250-4261. DOI: 10.1021/acs.jctc.1c00471
   
   for ddCOSMO and CPCM-X implicit solvation:
   * M. Stahn, S. Ehlert, S. Grimme, J. Phys. Chem. A,
     2023, XX, XXXX-XXXX. DOI: 10.1021/acs.jpca.3c04382
   
   for DFT-D4:
   * E. Caldeweyher, C. Bannwarth and S. Grimme, J. Chem. Phys., 2017,
     147, 034112. DOI: 10.1063/1.4993215
   * E. Caldeweyher, S. Ehlert, A. Hansen, H. Neugebauer, S. Spicher,
     C. Bannwarth and S. Grimme, J. Chem. Phys., 2019, 150, 154122.
     DOI: 10.1063/1.5090222
   * E. Caldeweyher, J.-M. Mewes, S. Ehlert and S. Grimme, Phys. Chem. Chem. Phys.
     2020, 22, 8499-8512. DOI: 10.1039/D0CP00502A
   
   for sTDA-xTB:
   * S. Grimme and C. Bannwarth, J. Chem. Phys., 2016, 145, 054103.
     DOI: 10.1063/1.4959605
   
   in the mass-spec context:
   * V. Asgeirsson, C. Bauer and S. Grimme, Chem. Sci., 2017, 8, 4879.
     DOI: 10.1039/c7sc00601b
   * J. Koopman and S. Grimme, ACS Omega 2019, 4, 12, 15120-15133.
     DOI: 10.1021/acsomega.9b02011
   
   for metadynamics refer to:
   * S. Grimme, J. Chem. Theory Comput., 2019, 155, 2847-2862
     DOI: 10.1021/acs.jctc.9b00143
   
   for SPH calculations refer to:
   * S. Spicher and S. Grimme, J. Chem. Theory Comput., 2021, 17, 1701-1714
     DOI: 10.1021/acs.jctc.0c01306
   
   for ONIOM refer to:
   * C. Plett, A. Katbashev, S. Ehlert, S. Grimme, M. Bursch,
     Phys. Chem. Chem. Phys., 2023, 25, 17860-17868. DOI: 10.1039/D3CP02178E
   
   for DIPRO refer to:
   * J. Kohn, N. Gildemeister, S. Grimme, D. Fazzi, A. Hansen,
     J. Chem. Phys., 2023, just accepted.
   
   for PTB refer to:
   * S. Grimme, M. Mueller, A. Hansen, J. Chem. Phys., 2023, 158, 124111.
     DOI: 10.1063/5.0137838
   
   with help from (in alphabetical order)
   P. Atkinson, C. Bannwarth, F. Bohle, G. Brandenburg, E. Caldeweyher
   M. Checinski, S. Dohm, S. Ehlert, S. Ehrlich, I. Gerasimov, C. Hölzer
   A. Katbashev, J. Kohn, J. Koopman, C. Lavigne, S. Lehtola, F. März, M. Müller,
   F. Musil, H. Neugebauer, J. Pisarek, C. Plett, P. Pracht, F. Pultar,
   J. Seibert, P. Shushkov, S. Spicher, M. Stahn, M. Steiner, T. Strunk,
   J. Stückrath, T. Rose, and J. Unsleber
   
 * started run on 2026/09/28 at 23:19:02.649     
   ID    Z sym.   atoms
    1    6 C      1, 2, 5-7, 10
    2    8 O      3, 8
    3    7 N      4, 9
    4    1 H      11-22

           -------------------------------------------------
          |                Calculation Setup                |
           -------------------------------------------------

          program call               : /app1/ebapps/arches/flat-avx2/software/ORCA/6.1.0-gompi-2023b-avx2/bin/otool_xtb o01-xtb-opt-freq_XTB.xyz --grad -c 0 -u 0 -P 8 --namespace o01-xtb-opt-freq --input o01-xtb-opt-freq_XTB.input.tmp --alpb WATER --acc 0.200000
          hostname                   : IN-006
          calculation namespace      : o01-xtb-opt-freq
          coordinate file            : o01-xtb-opt-freq_XTB.xyz
          omp threads                :                     8


           -------------------------------------------------
          |                 G F N 2 - x T B                 |
           -------------------------------------------------

        Reference                      10.1021/acs.jctc.8b01176
      * Hamiltonian:
        H0-scaling (s, p, d)           1.850000    2.230000    2.230000
        zeta-weighting                 0.500000
      * Dispersion:
        s8                             2.700000
        a1                             0.520000
        a2                             5.000000
        s9                             5.000000
      * Repulsion:
        kExp                           1.500000    1.000000
        rExp                           1.000000
      * Coulomb:
        alpha                          2.000000
        third order                    shell-resolved
        anisotropic                    true
        a3                             3.000000
        a5                             4.000000
        cn-shift                       1.200000
        cn-exp                         4.000000
        max-rad                        5.000000

      * Solvation model:               ALPB
        Solvent                        WATER
        Parameter file                 internal GFN2-xTB/ALPB
        Dielectric constant                8.0200E+01
        Reference state                gsolv [1 M gas/solution]
        Free energy shift                  1.0808E-03 Eh       6.7819E-01 kcal/mol
        Temperature                        2.9815E+02 K
        Density                            1.0000E+00 kg/L
        Solvent mass                       1.8000E+01 g/mol
        Interaction kernel             P16
        Born radius scaling (c1)           1.4744E+00
        Born radii integrator          GBOBC
        Born offset                        0.0000E+00 a0       0.0000E+00 AA
        H-bond correction              true
        Ion screening                  false
        Surface tension                    1.0000E-05 Eh       1.5569E+01 dyn/cm
        Grid points                               230 per atom
q/qsh data taken from xtbrestart
CAMM data taken from xtbrestart

          ...................................................
          :                      SETUP                      :
          :.................................................:
          :  # basis functions                  52          :
          :  # atomic orbitals                  52          :
          :  # shells                           32          :
          :  # electrons                        58          :
          :  max. iterations                   250          :
          :  Hamiltonian                  GFN2-xTB          :
          :  restarted?                       true          :
          :  GBSA solvation                   true          :
          :  PC potential                    false          :
          :  electronic temp.          300.0000000     K    :
          :  accuracy                    0.2000000          :
          :  -> integral cutoff          0.3198970E+02      :
          :  -> integral neglect         0.2000000E-08      :
          :  -> SCF convergence          0.2000000E-06 Eh   :
          :  -> wf. convergence          0.2000000E-04 e    :
          :  Broyden damping             0.4000000          :
          :  net charge                          0          :
          :  unpaired electrons                  0          :
          ...................................................

 iter      E             dE          RMSdq      gap      omega  full diag
   1    -33.3760613 -0.333761E+02  0.135E-01    4.59       0.0  T
   2    -33.3760642 -0.295796E-05  0.793E-02    4.59       1.0  T
   3    -33.3760654 -0.110919E-05  0.583E-03    4.58       3.7  T
   4    -33.3760654 -0.749899E-07  0.331E-03    4.58       6.4  T
   5    -33.3760654 -0.985263E-08  0.106E-03    4.58      20.1  T
   6    -33.3760654 -0.710919E-08  0.361E-04    4.58      59.0  T
   7    -33.3760654 -0.160028E-09  0.119E-04    4.58     179.5  T
   8    -33.3760654 -0.291323E-10  0.341E-05    4.58     625.9  T

   *** convergence criteria satisfied after 8 iterations ***

         #    Occupation            Energy/Eh            Energy/eV
      -------------------------------------------------------------
         1        2.0000           -0.7079230             -19.2636
       ...           ...                  ...                  ...
        23        2.0000           -0.4658077             -12.6753
        24        2.0000           -0.4623999             -12.5825
        25        2.0000           -0.4554063             -12.3922
        26        2.0000           -0.4324840             -11.7685
        27        2.0000           -0.4075042             -11.0888
        28        2.0000           -0.4030929             -10.9687
        29        2.0000           -0.3905698             -10.6279 (HOMO)
        30                         -0.2221097              -6.0439 (LUMO)
        31                         -0.2131388              -5.7998
        32                          0.0028876               0.0786
        33                          0.0063679               0.1733
        34                          0.0851168               2.3161
       ...                                ...                  ...
        52                          0.6028806              16.4052
      -------------------------------------------------------------
                  HL-Gap            0.1684601 Eh            4.5840 eV
             Fermi-level           -0.3063397 Eh           -8.3359 eV

 SCC (total)                   0 d,  0 h,  0 min,  0.011 sec
 SCC setup                      ...        0 min,  0.000 sec (  3.673%)
 Dispersion                     ...        0 min,  0.000 sec (  1.378%)
 classical contributions        ...        0 min,  0.000 sec (  0.200%)
 integral evaluation            ...        0 min,  0.001 sec (  6.447%)
 iterations                     ...        0 min,  0.008 sec ( 72.182%)
 molecular gradient             ...        0 min,  0.002 sec ( 14.848%)
 printout                       ...        0 min,  0.000 sec (  1.046%)

         :::::::::::::::::::::::::::::::::::::::::::::::::::::
         ::                     SUMMARY                     ::
         :::::::::::::::::::::::::::::::::::::::::::::::::::::
         :: total energy             -32.990317895723 Eh    ::
         :: total w/o Gsasa/hb       -32.987950473037 Eh    ::
         :: gradient norm              0.007925043760 Eh/a0 ::
         :: HOMO-LUMO gap              4.584032573174 eV    ::
         ::.................................................::
         :: SCC energy               -33.375963437679 Eh    ::
         :: -> isotropic ES            0.105000117161 Eh    ::
         :: -> anisotropic ES          0.001715503178 Eh    ::
         :: -> anisotropic XC          0.010810358909 Eh    ::
         :: -> dispersion             -0.015414555643 Eh    ::
         :: -> Gsolv                  -0.020565929493 Eh    ::
         ::    -> Gelec               -0.018198506807 Eh    ::
         ::    -> Gsasa                0.001579690890 Eh    ::
         ::    -> Ghb                 -0.005027873274 Eh    ::
         ::    -> Gshift               0.001080759698 Eh    ::
         :: repulsion energy           0.385645541956 Eh    ::
         :: add. restraining           0.000000000000 Eh    ::
         :: total charge               0.000000000000 e     ::
         :::::::::::::::::::::::::::::::::::::::::::::::::::::


Property printout bound to 'properties.out'

           -------------------------------------------------
          | TOTAL ENERGY              -32.990317895723 Eh   |
          | GRADIENT NORM               0.007925043760 Eh/α |
          | HOMO-LUMO GAP               4.584032573174 eV   |
           -------------------------------------------------

------------------------------------------------------------------------
 * finished run on 2026/09/28 at 23:19:02.711     
------------------------------------------------------------------------
 total:
 * wall-time:     0 d,  0 h,  0 min,  0.061 sec
 *  cpu-time:     0 d,  0 h,  0 min,  0.391 sec
 * ratio c/w:     6.433 speedup
 SCF:
 * wall-time:     0 d,  0 h,  0 min,  0.011 sec
 *  cpu-time:     0 d,  0 h,  0 min,  0.084 sec
 * ratio c/w:     7.447 speedup


-------------------------   --------------------
FINAL SINGLE POINT ENERGY       -32.990317895720
-------------------------   --------------------


-------------
DIPOLE MOMENT
-------------
                                X             Y             Z
Total Dipole Moment    :      1.08900       0.44800       0.94200
                        -----------------------------------------
Magnitude (a.u.)       :      1.50798
Magnitude (Debye)      :      3.83297


------------------
CARTESIAN GRADIENT
------------------

   1   C   :    0.000494942   -0.001134416    0.000196767
   2   C   :    0.001545787   -0.001409524    0.001937025
   3   O   :   -0.000549236    0.001331409   -0.001598403
   4   N   :    0.000132316    0.001055063   -0.001276953
   5   C   :   -0.000553528   -0.001456342    0.001673084
   6   C   :    0.001363898   -0.001787540    0.000463199
   7   C   :   -0.000912611   -0.000085159   -0.002682595
   8   O   :   -0.000562011   -0.002181687    0.001449454
   9   N   :    0.000665251    0.001576538    0.001438441
  10   C   :    0.000853588    0.000877825   -0.001825498
  11   H   :   -0.000179719    0.001115977   -0.000130874
  12   H   :   -0.000392942   -0.000437198    0.000173451
  13   H   :   -0.000253865    0.000983256   -0.000380693
  14   H   :    0.000016680   -0.000747705    0.000304497
  15   H   :    0.000409733    0.000854613   -0.000165756
  16   H   :   -0.000805720    0.000081610   -0.000435231
  17   H   :   -0.000611687    0.000442151    0.000324119
  18   H   :    0.000305510    0.000487145   -0.000174377
  19   H   :   -0.000601161    0.001232028   -0.000097292
  20   H   :    0.000304935    0.000265191   -0.000403909
  21   H   :   -0.000127624   -0.000686451    0.000616765
  22   H   :   -0.000542538   -0.000376782    0.000594779

Difference to translation invariance:
           :    0.0000000000    0.0000000000   -0.0000000000

Difference to rotation invariance:
           :    0.0003156397   -0.0000403939   -0.0003272642

Norm of the Cartesian gradient     ...    0.0079250438
RMS gradient                       ...    0.0009755055
MAX gradient                       ...    0.0026825952
------------------------------------------------------------------------------
                         ORCA GEOMETRY RELAXATION STEP
------------------------------------------------------------------------------

Reading the OPT-File                    .... done
Getting information on internals        .... done
Copying old internal coords+grads       .... done
Making the new internal coordinates     .... (2022 redundants) done
Validating the new internal coordinates .... (2022 redundants) done
Calculating the B-matrix                .... done
Calculating the G,G- and P matrices     .... done
Transforming gradient to internals      .... done
Projecting the internal gradient        .... done
Number of atoms                         ....  22
Number of internal coordinates          ....  92
Current Energy                          ....   -32.990317896 Eh
Current gradient norm                   ....     0.007925044 Eh/bohr
Maximum allowed component of the step   ....  0.300
Current trust radius                    ....  0.700
Updating the Hessian (BFGS)             .... done
Forming the augmented Hessian           .... done
Diagonalizing the augmented Hessian     .... done
Last element of RFO vector              ....  0.950189875
Lowest eigenvalues of augmented Hessian:
 -0.000400587  0.002340630  0.010904855  0.011698557  0.012748593
Length of the computed step             ....  0.328009836
The final length of the internal step   ....  0.328009836
Converting the step to Cartesian space:
 Initial RMS(Int)=    0.0341973893
Transforming coordinates:
 Iter   0:  RMS(Cart)=    0.0470516163 RMS(Int)=    0.9216079753
 Iter   5:  RMS(Cart)=    0.0000000412 RMS(Int)=    0.0000000259
done
Storing new coordinates                 .... done
The predicted energy change is          ....    -0.000221843
Previously predicted energy change      ....    -0.000242818
Actually observed energy change         ....    -0.000312711
Ratio of predicted to observed change   ....     1.287843988
New trust radius                        ....     0.700000000

                                .--------------------.
          ----------------------|Geometry convergence|-------------------------
          Item                value                   Tolerance       Converged
          ---------------------------------------------------------------------
          Energy change      -0.0003127114            0.0000050000      NO
          RMS gradient        0.0006618860            0.0001000000      NO
          MAX gradient        0.0023969693            0.0003000000      NO
          RMS step            0.0341973893            0.0020000000      NO
          MAX step            0.1295587249            0.0040000000      NO
          -------------------------------------------------------------------------
          ........................................................
          Max(Bonds)      0.0229      Max(Angles)    0.86
          Max(Dihed)        7.42      Max(Improp)    0.00
          ---------------------------------------------------------------------

The optimization has not yet converged - more geometry cycles are needed


    ---------------------------------------------------------------------------
                         Redundant Internal Coordinates
                            (Angstroem and degrees)

        Definition                    Value    dE/dq     Step     New-Value
    ----------------------------------------------------------------------------
     1. B(C   1,C   0)                1.5039 -0.000024 -0.0004    1.5035   
     2. B(O   2,C   1)                1.2349  0.002151 -0.0005    1.2343   
     3. B(N   3,C   1)                1.3397  0.000472 -0.0000    1.3396   
     4. B(C   4,N   3)                1.4546  0.000181  0.0021    1.4567   
     5. B(C   5,C   4)                1.5218  0.000830 -0.0019    1.5199   
     6. B(C   6,C   4)                1.5453  0.000793  0.0004    1.5457   
     7. B(O   7,C   6)                1.2277  0.002294 -0.0008    1.2269   
     8. B(N   8,C   6)                1.3351  0.002397 -0.0011    1.3340   
     9. B(C   9,N   8)                1.4461 -0.000365 -0.0007    1.4454   
    10. B(H  10,C   0)                1.0897  0.000717 -0.0004    1.0893   
    11. B(H  11,C   0)                1.0842  0.000215  0.0002    1.0844   
    12. B(H  12,C   0)                1.0874  0.000570 -0.0004    1.0870   
    13. B(H  13,N   3)                1.0097  0.000559 -0.0007    1.0090   
    14. B(H  14,C   4)                1.0986  0.000474 -0.0009    1.0977   
    15. B(H  15,C   5)                1.0867  0.000616 -0.0003    1.0864   
    16. B(H  16,C   5)                1.0878  0.000442 -0.0000    1.0878   
    17. B(H  17,C   5)                1.0856  0.000207  0.0001    1.0857   
    18. B(H  18,O   2)                1.9982  0.000255 -0.0229    1.9754   
    19. B(H  18,N   8)                1.0156  0.000504  0.0004    1.0160   
    20. B(H  19,C   9)                1.0867  0.000173  0.0006    1.0873   
    21. B(H  20,C   9)                1.0909  0.000821 -0.0006    1.0903   
    22. B(H  21,C   9)                1.0909 -0.000277  0.0004    1.0912   
    23. A(H  11,C   0,H  12)          110.74  0.000862   -0.12    110.63   
    24. A(C   1,C   0,H  11)          111.85 -0.000215    0.00    111.85   
    25. A(C   1,C   0,H  12)          108.94 -0.000166    0.04    108.99   
    26. A(C   1,C   0,H  10)          108.40  0.000024   -0.06    108.34   
    27. A(H  10,C   0,H  12)          107.24 -0.000834    0.29    107.53   
    28. A(H  10,C   0,H  11)          109.53  0.000283   -0.16    109.38   
    29. A(O   2,C   1,N   3)          121.80 -0.000227    0.08    121.88   
    30. A(C   0,C   1,N   3)          115.88  0.000930    0.02    115.89   
    31. A(C   0,C   1,O   2)          122.31 -0.000713   -0.02    122.29   
    32. A(C   4,N   3,H  13)          116.21 -0.000589   -0.00    116.21   
    33. A(C   1,N   3,C   4)          123.64  0.000144   -0.21    123.43   
    34. A(C   1,N   3,H  13)          120.13  0.000445    0.23    120.37   
    35. A(C   5,C   4,C   6)          111.12 -0.000087    0.03    111.15   
    36. A(N   3,C   4,C   5)          110.09  0.000234    0.09    110.17   
    37. A(N   3,C   4,C   6)          110.70  0.000261   -0.86    109.84   
    38. A(C   6,C   4,H  14)          107.17 -0.000152    0.14    107.31   
    39. A(C   5,C   4,H  14)          111.14  0.000404    0.13    111.27   
    40. A(N   3,C   4,H  14)          106.49 -0.000687    0.49    106.98   
    41. A(H  16,C   5,H  17)          110.38  0.000731   -0.01    110.36   
    42. A(C   4,C   5,H  17)          110.30 -0.000453    0.09    110.39   
    43. A(H  15,C   5,H  16)          107.79  0.000392   -0.01    107.78   
    44. A(C   4,C   5,H  16)          109.49 -0.000735   -0.01    109.48   
    45. A(C   4,C   5,H  15)          109.18 -0.000579    0.10    109.28   
    46. A(H  15,C   5,H  17)          109.65  0.000649   -0.17    109.49   
    47. A(O   7,C   6,N   8)          124.33  0.001537   -0.01    124.32   
    48. A(C   4,C   6,N   8)          113.48 -0.000046   -0.20    113.28   
    49. A(C   4,C   6,O   7)          122.17 -0.001502    0.14    122.30   
    50. A(C   9,N   8,H  18)          117.90 -0.001001    0.08    117.98   
    51. A(C   6,N   8,H  18)          119.19  0.001236    0.03    119.23   
    52. A(C   6,N   8,C   9)          122.82 -0.000239    0.32    123.13   
    53. A(N   8,C   9,H  19)          109.45 -0.000171    0.16    109.61   
    54. A(H  20,C   9,H  21)          108.43 -0.000427    0.28    108.71   
    55. A(H  19,C   9,H  21)          109.54  0.000127   -0.11    109.43   
    56. A(N   8,C   9,H  21)          111.00  0.000822   -0.50    110.50   
    57. A(H  19,C   9,H  20)          110.31  0.000512   -0.04    110.27   
    58. A(N   8,C   9,H  20)          108.09 -0.000867    0.21    108.30   
    59. D(O   2,C   1,C   0,H  10)     81.63 -0.000660    2.89     84.53   
    60. D(O   2,C   1,C   0,H  11)   -157.51 -0.000426    2.66   -154.85   
    61. D(N   3,C   1,C   0,H  11)     23.81  0.000101    2.56     26.37   
    62. D(N   3,C   1,C   0,H  10)    -97.05 -0.000134    2.79    -94.26   
    63. D(O   2,C   1,C   0,H  12)    -34.75  0.000407    2.54    -32.21   
    64. D(H  13,N   3,C   1,C   0)      3.11 -0.000339   -2.78      0.33   
    65. D(C   4,N   3,C   1,C   0)   -178.09 -0.000390    1.30   -176.79   
    66. D(H  13,N   3,C   1,O   2)   -175.58  0.000191   -2.91   -178.49   
    67. D(C   4,N   3,C   1,O   2)      3.22  0.000140    1.17      4.39   
    68. D(H  14,C   4,N   3,C   1)     32.58 -0.000186   -0.04     32.53   
    69. D(C   6,C   4,N   3,H  13)     95.25  0.000211    3.85     99.09   
    70. D(C   6,C   4,N   3,C   1)    -83.59  0.000249   -0.05    -83.64   
    71. D(C   5,C   4,N   3,H  13)    -28.01 -0.000019    4.35    -23.66   
    72. D(C   5,C   4,N   3,C   1)    153.16  0.000020    0.45    153.61   
    73. D(H  15,C   5,C   4,N   3)   -176.99  0.000098    0.46   -176.53   
    74. D(H  16,C   5,C   4,H  14)   -177.04 -0.000064    1.14   -175.91   
    75. D(H  16,C   5,C   4,C   6)    -57.79 -0.000047    1.42    -56.37   
    76. D(H  16,C   5,C   4,N   3)     65.21  0.000388    0.40     65.61   
    77. D(H  15,C   5,C   4,H  14)    -59.25 -0.000355    1.19    -58.05   
    78. D(H  15,C   5,C   4,C   6)     60.01 -0.000338    1.48     61.48   
    79. D(N   8,C   6,C   4,C   5)   -172.36 -0.000317    3.49   -168.87   
    80. D(N   8,C   6,C   4,N   3)     64.99 -0.000738    3.97     68.96   
    81. D(O   7,C   6,C   4,H  14)    130.84  0.000430    2.83    133.67   
    82. D(O   7,C   6,C   4,C   5)      9.24  0.000084    2.56     11.80   
    83. D(O   7,C   6,C   4,N   3)   -113.42 -0.000337    3.04   -110.37   
    84. D(H  18,N   8,C   6,O   7)   -179.53 -0.000285   -2.89   -182.42   
    85. D(H  18,N   8,C   6,C   4)      2.11  0.000183   -3.80     -1.69   
    86. D(C   9,N   8,C   6,O   7)     -2.96 -0.000405    2.24     -0.71   
    87. D(C   9,N   8,C   6,C   4)    178.68  0.000062    1.33    180.01   
    88. D(H  19,C   9,N   8,H  18)    -38.25  0.000290   -2.06    -40.31   
    89. D(H  19,C   9,N   8,C   6)    145.14  0.000337   -7.08    138.06   
    90. D(H  21,C   9,N   8,C   6)    -93.84  0.000911   -7.42   -101.26   
    91. D(H  20,C   9,N   8,H  18)   -158.43  0.000289   -2.23   -160.65   
    92. D(H  20,C   9,N   8,C   6)     24.96  0.000335   -7.25     17.71   
    ----------------------------------------------------------------------------

Geometry step timings:
Preparation and reading OPT file:      0.001 s ( 3.384 %)
Internal coordinates            :      0.000 s ( 0.238 %)
B/P matrices and projection     :      0.002 s ( 8.352 %)
Hessian update/contruction      :      0.015 s (48.770 %)
Making the step                 :      0.002 s ( 7.140 %)
Converting the step to Cartesian:      0.000 s ( 0.761 %)
Storing new data                :      0.004 s (14.490 %)
Checking convergence            :      0.000 s ( 0.338 %)
Final printing                  :      0.005 s (16.520 %)
Total time                      :      0.030 s

Time for energy+gradient        :      0.143 s
Time for complete geometry iter :      0.198 s

         *************************************************************
         *                GEOMETRY OPTIMIZATION CYCLE   7            *
         *************************************************************
---------------------------------
CARTESIAN COORDINATES (ANGSTROEM)
---------------------------------
  C     2.238061    1.748788    1.188279
  C     1.440204    1.036258    0.131763
  O     1.152912    1.564932   -0.946077
  N     1.036085   -0.202963    0.440440
  C     0.313007   -1.063345   -0.485980
  C     0.558327   -2.524159   -0.145614
  C    -1.194639   -0.726115   -0.445035
  O    -2.026298   -1.491867    0.031661
  N    -1.480528    0.470354   -0.961082
  C    -2.824504    0.997792   -1.029744
  H     1.555603    2.355751    1.782021
  H     2.759292    1.054039    1.837557
  H     2.941011    2.423132    0.705933
  H     1.263755   -0.605309    1.337318
  H     0.674066   -0.823604   -1.494539
  H     0.062950   -3.151995   -0.880957
  H     0.126094   -2.747547    0.827316
  H     1.622601   -2.738619   -0.144394
  H    -0.722552    1.055426   -1.301570
  H    -2.817725    2.050513   -0.757811
  H    -3.449706    0.432913   -0.337821
  H    -3.228013    0.885626   -2.037403

----------------------------
CARTESIAN COORDINATES (A.U.)
----------------------------
  NO LB    ZA    FRAG    MASS        X           Y           Z
   0 C   6.0000    0    12.011    4.229322    3.304730    2.245522
   1 C   6.0000    0    12.011    2.721592    1.958243    0.248996
   2 O   8.0000    0    15.999    2.178688    2.957292   -1.787827
   3 N   7.0000    0    14.007    1.957917   -0.383545    0.832312
   4 C   6.0000    0    12.011    0.591498   -2.009431   -0.918369
   5 C   6.0000    0    12.011    1.055086   -4.769969   -0.275170
   6 C   6.0000    0    12.011   -2.257541   -1.372158   -0.840994
   7 O   8.0000    0    15.999   -3.829148   -2.819220    0.059831
   8 N   7.0000    0    14.007   -2.797792    0.888841   -1.816183
   9 C   6.0000    0    12.011   -5.337540    1.885554   -1.945934
  10 H   1.0000    0     1.008    2.939664    4.451724    3.367532
  11 H   1.0000    0     1.008    5.214306    1.991845    3.472480
  12 H   1.0000    0     1.008    5.557706    4.579056    1.334021
  13 H   1.0000    0     1.008    2.388151   -1.143867    2.527165
  14 H   1.0000    0     1.008    1.273800   -1.556386   -2.824269
  15 H   1.0000    0     1.008    0.118959   -5.956408   -1.664768
  16 H   1.0000    0     1.008    0.238283   -5.192112    1.563401
  17 H   1.0000    0     1.008    3.066271   -5.175240   -0.272865
  18 H   1.0000    0     1.008   -1.365425    1.994466   -2.459612
  19 H   1.0000    0     1.008   -5.324729    3.874907   -1.432055
  20 H   1.0000    0     1.008   -6.519000    0.818087   -0.638390
  21 H   1.0000    0     1.008   -6.100061    1.673590   -3.850134

      -----------------------------------------------------------      
     |                   =====================                   |     
     |                           x T B                           |     
     |                   =====================                   |     
     |                         S. Grimme                         |     
     |          Mulliken Center for Theoretical Chemistry        |     
     |                    University of Bonn                     |     
      -----------------------------------------------------------      

   * xtb version 6.7.1 (edcfbbe) compiled by 'albert@albert-system' on 2024-07-22

   xtb is free software: you can redistribute it and/or modify it under
   the terms of the GNU Lesser General Public License as published by
   the Free Software Foundation, either version 3 of the License, or
   (at your option) any later version.
   
   xtb is distributed in the hope that it will be useful,
   but WITHOUT ANY WARRANTY; without even the implied warranty of
   MERCHANTABILITY or FITNESS FOR A PARTICULAR PURPOSE.  See the
   GNU Lesser General Public License for more details.
   
   Cite this work as:
   * C. Bannwarth, E. Caldeweyher, S. Ehlert, A. Hansen, P. Pracht,
     J. Seibert, S. Spicher, S. Grimme, WIREs Comput. Mol. Sci., 2020, 11,
     e01493. DOI: 10.1002/wcms.1493
   
   for GFN2-xTB:
   * C. Bannwarth, S. Ehlert and S. Grimme., J. Chem. Theory Comput., 2019,
     15, 1652-1671. DOI: 10.1021/acs.jctc.8b01176
   for GFN1-xTB:
   * S. Grimme, C. Bannwarth, P. Shushkov, J. Chem. Theory Comput., 2017,
     13, 1989-2009. DOI: 10.1021/acs.jctc.7b00118
   for GFN0-xTB:
   * P. Pracht, E. Caldeweyher, S. Ehlert, S. Grimme, ChemRxiv, 2019, preprint.
     DOI: 10.26434/chemrxiv.8326202.v1
   for GFN-FF:
   * S. Spicher and S. Grimme, Angew. Chem. Int. Ed., 2020, 59, 15665-15673.
     DOI: 10.1002/anie.202004239
   
   for ALPB and GBSA implicit solvation:
   * S. Ehlert, M. Stahn, S. Spicher, S. Grimme, J. Chem. Theory Comput.,
     2021, 17, 4250-4261. DOI: 10.1021/acs.jctc.1c00471
   
   for ddCOSMO and CPCM-X implicit solvation:
   * M. Stahn, S. Ehlert, S. Grimme, J. Phys. Chem. A,
     2023, XX, XXXX-XXXX. DOI: 10.1021/acs.jpca.3c04382
   
   for DFT-D4:
   * E. Caldeweyher, C. Bannwarth and S. Grimme, J. Chem. Phys., 2017,
     147, 034112. DOI: 10.1063/1.4993215
   * E. Caldeweyher, S. Ehlert, A. Hansen, H. Neugebauer, S. Spicher,
     C. Bannwarth and S. Grimme, J. Chem. Phys., 2019, 150, 154122.
     DOI: 10.1063/1.5090222
   * E. Caldeweyher, J.-M. Mewes, S. Ehlert and S. Grimme, Phys. Chem. Chem. Phys.
     2020, 22, 8499-8512. DOI: 10.1039/D0CP00502A
   
   for sTDA-xTB:
   * S. Grimme and C. Bannwarth, J. Chem. Phys., 2016, 145, 054103.
     DOI: 10.1063/1.4959605
   
   in the mass-spec context:
   * V. Asgeirsson, C. Bauer and S. Grimme, Chem. Sci., 2017, 8, 4879.
     DOI: 10.1039/c7sc00601b
   * J. Koopman and S. Grimme, ACS Omega 2019, 4, 12, 15120-15133.
     DOI: 10.1021/acsomega.9b02011
   
   for metadynamics refer to:
   * S. Grimme, J. Chem. Theory Comput., 2019, 155, 2847-2862
     DOI: 10.1021/acs.jctc.9b00143
   
   for SPH calculations refer to:
   * S. Spicher and S. Grimme, J. Chem. Theory Comput., 2021, 17, 1701-1714
     DOI: 10.1021/acs.jctc.0c01306
   
   for ONIOM refer to:
   * C. Plett, A. Katbashev, S. Ehlert, S. Grimme, M. Bursch,
     Phys. Chem. Chem. Phys., 2023, 25, 17860-17868. DOI: 10.1039/D3CP02178E
   
   for DIPRO refer to:
   * J. Kohn, N. Gildemeister, S. Grimme, D. Fazzi, A. Hansen,
     J. Chem. Phys., 2023, just accepted.
   
   for PTB refer to:
   * S. Grimme, M. Mueller, A. Hansen, J. Chem. Phys., 2023, 158, 124111.
     DOI: 10.1063/5.0137838
   
   with help from (in alphabetical order)
   P. Atkinson, C. Bannwarth, F. Bohle, G. Brandenburg, E. Caldeweyher
   M. Checinski, S. Dohm, S. Ehlert, S. Ehrlich, I. Gerasimov, C. Hölzer
   A. Katbashev, J. Kohn, J. Koopman, C. Lavigne, S. Lehtola, F. März, M. Müller,
   F. Musil, H. Neugebauer, J. Pisarek, C. Plett, P. Pracht, F. Pultar,
   J. Seibert, P. Shushkov, S. Spicher, M. Stahn, M. Steiner, T. Strunk,
   J. Stückrath, T. Rose, and J. Unsleber
   
 * started run on 2026/09/28 at 23:19:02.846     
   ID    Z sym.   atoms
    1    6 C      1, 2, 5-7, 10
    2    8 O      3, 8
    3    7 N      4, 9
    4    1 H      11-22

           -------------------------------------------------
          |                Calculation Setup                |
           -------------------------------------------------

          program call               : /app1/ebapps/arches/flat-avx2/software/ORCA/6.1.0-gompi-2023b-avx2/bin/otool_xtb o01-xtb-opt-freq_XTB.xyz --grad -c 0 -u 0 -P 8 --namespace o01-xtb-opt-freq --input o01-xtb-opt-freq_XTB.input.tmp --alpb WATER --acc 0.200000
          hostname                   : IN-006
          calculation namespace      : o01-xtb-opt-freq
          coordinate file            : o01-xtb-opt-freq_XTB.xyz
          omp threads                :                     8


           -------------------------------------------------
          |                 G F N 2 - x T B                 |
           -------------------------------------------------

        Reference                      10.1021/acs.jctc.8b01176
      * Hamiltonian:
        H0-scaling (s, p, d)           1.850000    2.230000    2.230000
        zeta-weighting                 0.500000
      * Dispersion:
        s8                             2.700000
        a1                             0.520000
        a2                             5.000000
        s9                             5.000000
      * Repulsion:
        kExp                           1.500000    1.000000
        rExp                           1.000000
      * Coulomb:
        alpha                          2.000000
        third order                    shell-resolved
        anisotropic                    true
        a3                             3.000000
        a5                             4.000000
        cn-shift                       1.200000
        cn-exp                         4.000000
        max-rad                        5.000000

      * Solvation model:               ALPB
        Solvent                        WATER
        Parameter file                 internal GFN2-xTB/ALPB
        Dielectric constant                8.0200E+01
        Reference state                gsolv [1 M gas/solution]
        Free energy shift                  1.0808E-03 Eh       6.7819E-01 kcal/mol
        Temperature                        2.9815E+02 K
        Density                            1.0000E+00 kg/L
        Solvent mass                       1.8000E+01 g/mol
        Interaction kernel             P16
        Born radius scaling (c1)           1.4744E+00
        Born radii integrator          GBOBC
        Born offset                        0.0000E+00 a0       0.0000E+00 AA
        H-bond correction              true
        Ion screening                  false
        Surface tension                    1.0000E-05 Eh       1.5569E+01 dyn/cm
        Grid points                               230 per atom
q/qsh data taken from xtbrestart
CAMM data taken from xtbrestart

          ...................................................
          :                      SETUP                      :
          :.................................................:
          :  # basis functions                  52          :
          :  # atomic orbitals                  52          :
          :  # shells                           32          :
          :  # electrons                        58          :
          :  max. iterations                   250          :
          :  Hamiltonian                  GFN2-xTB          :
          :  restarted?                       true          :
          :  GBSA solvation                   true          :
          :  PC potential                    false          :
          :  electronic temp.          300.0000000     K    :
          :  accuracy                    0.2000000          :
          :  -> integral cutoff          0.3198970E+02      :
          :  -> integral neglect         0.2000000E-08      :
          :  -> SCF convergence          0.2000000E-06 Eh   :
          :  -> wf. convergence          0.2000000E-04 e    :
          :  Broyden damping             0.4000000          :
          :  net charge                          0          :
          :  unpaired electrons                  0          :
          ...................................................

 iter      E             dE          RMSdq      gap      omega  full diag
   1    -33.3771741 -0.333772E+02  0.155E-01    4.61       0.0  T
   2    -33.3771774 -0.328338E-05  0.919E-02    4.61       1.0  T
   3    -33.3771783 -0.912116E-06  0.758E-03    4.61       2.8  T
   4    -33.3771788 -0.515765E-06  0.397E-03    4.61       5.4  T
   5    -33.3771788 -0.219838E-07  0.110E-03    4.61      19.4  T
   6    -33.3771788 -0.268039E-08  0.390E-04    4.61      54.7  T
   7    -33.3771788 -0.251141E-09  0.127E-04    4.61     167.8  T
   8    -33.3771788 -0.447713E-10  0.454E-05    4.61     470.0  T

   *** convergence criteria satisfied after 8 iterations ***

         #    Occupation            Energy/Eh            Energy/eV
      -------------------------------------------------------------
         1        2.0000           -0.7081502             -19.2697
       ...           ...                  ...                  ...
        23        2.0000           -0.4658732             -12.6771
        24        2.0000           -0.4623126             -12.5802
        25        2.0000           -0.4555945             -12.3974
        26        2.0000           -0.4321604             -11.7597
        27        2.0000           -0.4077724             -11.0961
        28        2.0000           -0.4021890             -10.9441
        29        2.0000           -0.3905296             -10.6269 (HOMO)
        30                         -0.2212203              -6.0197 (LUMO)
        31                         -0.2129863              -5.7957
        32                          0.0030401               0.0827
        33                          0.0073032               0.1987
        34                          0.0835794               2.2743
       ...                                ...                  ...
        52                          0.6063876              16.5006
      -------------------------------------------------------------
                  HL-Gap            0.1693093 Eh            4.6071 eV
             Fermi-level           -0.3058749 Eh           -8.3233 eV

 SCC (total)                   0 d,  0 h,  0 min,  0.010 sec
 SCC setup                      ...        0 min,  0.000 sec (  3.861%)
 Dispersion                     ...        0 min,  0.000 sec (  1.583%)
 classical contributions        ...        0 min,  0.000 sec (  0.184%)
 integral evaluation            ...        0 min,  0.001 sec (  7.091%)
 iterations                     ...        0 min,  0.007 sec ( 69.679%)
 molecular gradient             ...        0 min,  0.002 sec ( 16.290%)
 printout                       ...        0 min,  0.000 sec (  1.070%)

         :::::::::::::::::::::::::::::::::::::::::::::::::::::
         ::                     SUMMARY                     ::
         :::::::::::::::::::::::::::::::::::::::::::::::::::::
         :: total energy             -32.990585926634 Eh    ::
         :: total w/o Gsasa/hb       -32.988208648801 Eh    ::
         :: gradient norm              0.005568323380 Eh/a0 ::
         :: HOMO-LUMO gap              4.607141245156 eV    ::
         ::.................................................::
         :: SCC energy               -33.377076970367 Eh    ::
         :: -> isotropic ES            0.104799200479 Eh    ::
         :: -> anisotropic ES          0.001497707842 Eh    ::
         :: -> anisotropic XC          0.010764327169 Eh    ::
         :: -> dispersion             -0.015436123676 Eh    ::
         :: -> Gsolv                  -0.020460101729 Eh    ::
         ::    -> Gelec               -0.018082823896 Eh    ::
         ::    -> Gsasa                0.001559464873 Eh    ::
         ::    -> Ghb                 -0.005017502404 Eh    ::
         ::    -> Gshift               0.001080759698 Eh    ::
         :: repulsion energy           0.386491043733 Eh    ::
         :: add. restraining           0.000000000000 Eh    ::
         :: total charge               0.000000000000 e     ::
         :::::::::::::::::::::::::::::::::::::::::::::::::::::


Property printout bound to 'properties.out'

           -------------------------------------------------
          | TOTAL ENERGY              -32.990585926634 Eh   |
          | GRADIENT NORM               0.005568323380 Eh/α |
          | HOMO-LUMO GAP               4.607141245156 eV   |
           -------------------------------------------------

------------------------------------------------------------------------
 * finished run on 2026/09/28 at 23:19:02.907     
------------------------------------------------------------------------
 total:
 * wall-time:     0 d,  0 h,  0 min,  0.059 sec
 *  cpu-time:     0 d,  0 h,  0 min,  0.386 sec
 * ratio c/w:     6.516 speedup
 SCF:
 * wall-time:     0 d,  0 h,  0 min,  0.011 sec
 *  cpu-time:     0 d,  0 h,  0 min,  0.084 sec
 * ratio c/w:     7.898 speedup


-------------------------   --------------------
FINAL SINGLE POINT ENERGY       -32.990585926630
-------------------------   --------------------


-------------
DIPOLE MOMENT
-------------
                                X             Y             Z
Total Dipole Moment    :      1.16500       0.39100       0.85500
                        -----------------------------------------
Magnitude (a.u.)       :      1.49704
Magnitude (Debye)      :      3.80518


------------------
CARTESIAN GRADIENT
------------------

   1   C   :    0.000563564   -0.000841535   -0.000409793
   2   C   :    0.000709262   -0.000828886    0.001656569
   3   O   :   -0.000292183    0.000934506   -0.001142653
   4   N   :   -0.000949540    0.001624942    0.000680884
   5   C   :    0.000574798   -0.002135228    0.000046425
   6   C   :    0.000940009   -0.001038880    0.000139781
   7   C   :   -0.001324477    0.000046657   -0.000399165
   8   O   :   -0.000014424   -0.001088425    0.000594960
   9   N   :    0.000758359    0.000811077    0.000110344
  10   C   :    0.000860933    0.000495283   -0.000408652
  11   H   :   -0.000275880    0.000711962   -0.000167911
  12   H   :   -0.000281707   -0.000340944    0.000208060
  13   H   :   -0.000190352    0.000686017   -0.000270294
  14   H   :    0.000421127   -0.000943198   -0.000340817
  15   H   :   -0.000028685    0.000521171   -0.000173792
  16   H   :   -0.000577016    0.000066093   -0.000259835
  17   H   :   -0.000536443    0.000428222    0.000244619
  18   H   :    0.000197692    0.000407371   -0.000178382
  19   H   :   -0.000441805    0.001213048    0.000013975
  20   H   :    0.000417978    0.000181276   -0.000436183
  21   H   :   -0.000321743   -0.000429434    0.000393276
  22   H   :   -0.000209468   -0.000481095    0.000098583

Difference to translation invariance:
           :    0.0000000000    0.0000000000   -0.0000000000

Difference to rotation invariance:
           :   -0.0000939146    0.0000381537   -0.0002901035

Norm of the Cartesian gradient     ...    0.0055683234
RMS gradient                       ...    0.0006854132
MAX gradient                       ...    0.0021352281
------------------------------------------------------------------------------
                         ORCA GEOMETRY RELAXATION STEP
------------------------------------------------------------------------------

Reading the OPT-File                    .... done
Getting information on internals        .... done
Copying old internal coords+grads       .... done
Making the new internal coordinates     .... (2022 redundants) done
Validating the new internal coordinates .... (2022 redundants) done
Calculating the B-matrix                .... done
Calculating the G,G- and P matrices     .... done
Transforming gradient to internals      .... done
Projecting the internal gradient        .... done
Number of atoms                         ....  22
Number of internal coordinates          ....  92
Current Energy                          ....   -32.990585927 Eh
Current gradient norm                   ....     0.005568323 Eh/bohr
Maximum allowed component of the step   ....  0.300
Current trust radius                    ....  0.700
Updating the Hessian (BFGS)             .... done
Forming the augmented Hessian           .... done
Diagonalizing the augmented Hessian     .... done
Last element of RFO vector              ....  0.978064845
Lowest eigenvalues of augmented Hessian:
 -0.000225938  0.001997026  0.010742541  0.011701678  0.012991610
Length of the computed step             ....  0.212972226
The final length of the internal step   ....  0.212972226
Converting the step to Cartesian space:
 Initial RMS(Int)=    0.0222038894
Transforming coordinates:
 Iter   0:  RMS(Cart)=    0.0318756878 RMS(Int)=    0.6532850595
 Iter   5:  RMS(Cart)=    0.0000000084 RMS(Int)=    0.0000000067
done
Storing new coordinates                 .... done
The predicted energy change is          ....    -0.000118093
Previously predicted energy change      ....    -0.000221843
Actually observed energy change         ....    -0.000268031
Ratio of predicted to observed change   ....     1.208199945
New trust radius                        ....     0.700000000

                                .--------------------.
          ----------------------|Geometry convergence|-------------------------
          Item                value                   Tolerance       Converged
          ---------------------------------------------------------------------
          Energy change      -0.0002680309            0.0000050000      NO
          RMS gradient        0.0004771191            0.0001000000      NO
          MAX gradient        0.0014608333            0.0003000000      NO
          RMS step            0.0222038894            0.0020000000      NO
          MAX step            0.0975471022            0.0040000000      NO
          -------------------------------------------------------------------------
          ........................................................
          Max(Bonds)      0.0069      Max(Angles)    0.41
          Max(Dihed)        5.59      Max(Improp)    0.00
          ---------------------------------------------------------------------

The optimization has not yet converged - more geometry cycles are needed


    ---------------------------------------------------------------------------
                         Redundant Internal Coordinates
                            (Angstroem and degrees)

        Definition                    Value    dE/dq     Step     New-Value
    ----------------------------------------------------------------------------
     1. B(C   1,C   0)                1.5035 -0.000442  0.0004    1.5039   
     2. B(O   2,C   1)                1.2344  0.001425 -0.0013    1.2332   
     3. B(N   3,C   1)                1.3395  0.000474  0.0005    1.3400   
     4. B(C   4,N   3)                1.4565  0.000703  0.0004    1.4569   
     5. B(C   5,C   4)                1.5199  0.000121 -0.0012    1.5187   
     6. B(C   6,C   4)                1.5454  0.000564 -0.0007    1.5447   
     7. B(O   7,C   6)                1.2269  0.000920 -0.0009    1.2260   
     8. B(N   8,C   6)                1.3340  0.001461 -0.0005    1.3335   
     9. B(C   9,N   8)                1.4454 -0.000764  0.0003    1.4457   
    10. B(H  10,C   0)                1.0893  0.000481 -0.0009    1.0885   
    11. B(H  11,C   0)                1.0844  0.000207  0.0001    1.0845   
    12. B(H  12,C   0)                1.0870  0.000421 -0.0007    1.0863   
    13. B(H  13,N   3)                1.0090  0.000168 -0.0005    1.0085   
    14. B(H  14,C   4)                1.0977  0.000266 -0.0010    1.0967   
    15. B(H  15,C   5)                1.0864  0.000401 -0.0005    1.0859   
    16. B(H  16,C   5)                1.0878  0.000340 -0.0003    1.0875   
    17. B(H  17,C   5)                1.0857  0.000116  0.0002    1.0858   
    18. B(H  18,O   2)                1.9757 -0.000155 -0.0069    1.9688   
    19. B(H  18,N   8)                1.0163  0.000240  0.0002    1.0164   
    20. B(H  19,C   9)                1.0873  0.000067  0.0004    1.0877   
    21. B(H  20,C   9)                1.0903  0.000659 -0.0013    1.0890   
    22. B(H  21,C   9)                1.0912  0.000036  0.0001    1.0913   
    23. A(H  11,C   0,H  12)          110.63  0.000596   -0.32    110.31   
    24. A(C   1,C   0,H  11)          111.85 -0.000091   -0.03    111.82   
    25. A(C   1,C   0,H  12)          108.99 -0.000098    0.06    109.04   
    26. A(C   1,C   0,H  10)          108.34 -0.000244    0.07    108.41   
    27. A(H  10,C   0,H  12)          107.54 -0.000450    0.41    107.95   
    28. A(H  10,C   0,H  11)          109.38  0.000254   -0.17    109.20   
    29. A(O   2,C   1,N   3)          121.82  0.000088    0.03    121.84   
    30. A(C   0,C   1,N   3)          115.89  0.000829   -0.17    115.71   
    31. A(C   0,C   1,O   2)          122.28 -0.000919    0.12    122.40   
    32. A(C   4,N   3,H  13)          116.22 -0.000724    0.04    116.26   
    33. A(C   1,N   3,C   4)          123.35  0.000111   -0.35    122.99   
    34. A(C   1,N   3,H  13)          120.38  0.000598   -0.15    120.22   
    35. A(C   5,C   4,C   6)          111.18  0.000207   -0.05    111.13   
    36. A(N   3,C   4,C   5)          110.19  0.000287   -0.04    110.16   
    37. A(N   3,C   4,C   6)          109.79 -0.000454   -0.38    109.41   
    38. A(C   6,C   4,H  14)          107.31 -0.000136    0.17    107.49   
    39. A(C   5,C   4,H  14)          111.26  0.000220   -0.11    111.15   
    40. A(N   3,C   4,H  14)          106.98 -0.000158    0.40    107.39   
    41. A(H  16,C   5,H  17)          110.36  0.000657   -0.25    110.11   
    42. A(C   4,C   5,H  17)          110.39 -0.000383    0.12    110.50   
    43. A(H  15,C   5,H  16)          107.79  0.000318   -0.00    107.78   
    44. A(C   4,C   5,H  16)          109.48 -0.000715    0.21    109.69   
    45. A(C   4,C   5,H  15)          109.28 -0.000354    0.20    109.48   
    46. A(H  15,C   5,H  17)          109.49  0.000484   -0.27    109.21   
    47. A(O   7,C   6,N   8)          124.39  0.001109   -0.16    124.23   
    48. A(C   4,C   6,N   8)          113.24 -0.000289   -0.07    113.17   
    49. A(C   4,C   6,O   7)          122.37 -0.000819    0.24    122.61   
    50. A(C   9,N   8,H  18)          117.87 -0.001043    0.18    118.05   
    51. A(C   6,N   8,H  18)          119.09  0.001321   -0.38    118.70   
    52. A(C   6,N   8,C   9)          123.02 -0.000277    0.12    123.14   
    53. A(N   8,C   9,H  19)          109.61 -0.000359    0.14    109.75   
    54. A(H  20,C   9,H  21)          108.71 -0.000253    0.30    109.00   
    55. A(H  19,C   9,H  21)          109.44  0.000274   -0.11    109.32   
    56. A(N   8,C   9,H  21)          110.50  0.000023   -0.34    110.16   
    57. A(H  19,C   9,H  20)          110.27  0.000417   -0.16    110.11   
    58. A(N   8,C   9,H  20)          108.30 -0.000102    0.18    108.48   
    59. D(O   2,C   1,C   0,H  10)     84.53 -0.000352    2.23     86.75   
    60. D(O   2,C   1,C   0,H  11)   -154.85 -0.000255    2.04   -152.81   
    61. D(N   3,C   1,C   0,H  11)     26.36 -0.000162    2.32     28.68   
    62. D(N   3,C   1,C   0,H  10)    -94.26 -0.000259    2.51    -91.76   
    63. D(O   2,C   1,C   0,H  12)    -32.20  0.000371    1.66    -30.54   
    64. D(H  13,N   3,C   1,C   0)      0.34 -0.000391   -0.63     -0.28   
    65. D(C   4,N   3,C   1,C   0)   -176.81 -0.000004    0.22   -176.59   
    66. D(H  13,N   3,C   1,O   2)   -178.45 -0.000285   -0.34   -178.79   
    67. D(C   4,N   3,C   1,O   2)      4.40  0.000102    0.51      4.90   
    68. D(H  14,C   4,N   3,C   1)     32.53 -0.000399    0.10     32.63   
    69. D(C   6,C   4,N   3,H  13)     99.13  0.000423    0.58     99.71   
    70. D(C   6,C   4,N   3,C   1)    -83.60  0.000084   -0.15    -83.76   
    71. D(C   5,C   4,N   3,H  13)    -23.65  0.000276    0.92    -22.72   
    72. D(C   5,C   4,N   3,C   1)    153.62 -0.000063    0.19    153.81   
    73. D(H  15,C   5,C   4,N   3)   -176.55 -0.000289    0.63   -175.92   
    74. D(H  16,C   5,C   4,H  14)   -175.90  0.000076    0.80   -175.10   
    75. D(H  16,C   5,C   4,C   6)    -56.36  0.000189    0.93    -55.43   
    76. D(H  16,C   5,C   4,N   3)     65.60 -0.000050    0.39     65.99   
    77. D(H  15,C   5,C   4,H  14)    -58.06 -0.000163    1.05    -57.01   
    78. D(H  15,C   5,C   4,C   6)     61.49 -0.000049    1.17     62.66   
    79. D(N   8,C   6,C   4,C   5)   -168.88  0.000125    1.22   -167.66   
    80. D(N   8,C   6,C   4,N   3)     68.92 -0.000065    1.56     70.48   
    81. D(O   7,C   6,C   4,H  14)    133.68  0.000304    0.97    134.66   
    82. D(O   7,C   6,C   4,C   5)     11.81 -0.000005    1.02     12.84   
    83. D(O   7,C   6,C   4,N   3)   -110.38 -0.000195    1.36   -109.02   
    84. D(H  18,N   8,C   6,O   7)    177.60  0.000004   -1.55    176.05   
    85. D(H  18,N   8,C   6,C   4)     -1.69 -0.000113   -1.77     -3.47   
    86. D(C   9,N   8,C   6,O   7)     -0.72 -0.000036    1.41      0.69   
    87. D(C   9,N   8,C   6,C   4)    179.99 -0.000152    1.19    181.18   
    88. D(H  19,C   9,N   8,H  18)    -40.29  0.000405   -2.45    -42.74   
    89. D(H  19,C   9,N   8,C   6)    138.05  0.000481   -5.32    132.73   
    90. D(H  21,C   9,N   8,C   6)   -101.27  0.000605   -5.59   -106.86   
    91. D(H  20,C   9,N   8,H  18)   -160.64  0.000172   -2.44   -163.08   
    92. D(H  20,C   9,N   8,C   6)     17.70  0.000249   -5.31     12.39   
    ----------------------------------------------------------------------------

Geometry step timings:
Preparation and reading OPT file:      0.001 s ( 4.336 %)
Internal coordinates            :      0.000 s ( 0.201 %)
B/P matrices and projection     :      0.003 s ( 7.613 %)
Hessian update/contruction      :      0.016 s (48.460 %)
Making the step                 :      0.002 s ( 6.464 %)
Converting the step to Cartesian:      0.000 s ( 0.693 %)
Storing new data                :      0.005 s (16.571 %)
Checking convergence            :      0.000 s ( 0.283 %)
Final printing                  :      0.005 s (15.373 %)
Total time                      :      0.033 s

Time for energy+gradient        :      0.141 s
Time for complete geometry iter :      0.203 s

         *************************************************************
         *                GEOMETRY OPTIMIZATION CYCLE   8            *
         *************************************************************
---------------------------------
CARTESIAN COORDINATES (ANGSTROEM)
---------------------------------
  C     2.234842    1.750722    1.183002
  C     1.435767    1.037039    0.127568
  O     1.142245    1.563777   -0.948085
  N     1.033399   -0.202003    0.441490
  C     0.313031   -1.064642   -0.485613
  C     0.555758   -2.523222   -0.139082
  C    -1.193175   -0.724674   -0.438954
  O    -2.024427   -1.474668    0.060744
  N    -1.481450    0.458114   -0.983225
  C    -2.820990    0.999661   -1.032445
  H     1.549026    2.323135    1.804954
  H     2.788378    1.057677    1.807000
  H     2.913243    2.449512    0.701947
  H     1.271053   -0.603912    1.335383
  H     0.672280   -0.832865   -1.495586
  H     0.073981   -3.156166   -0.878286
  H     0.114592   -2.748172    0.829128
  H     1.619928   -2.738426   -0.123457
  H    -0.718596    1.039379   -1.319641
  H    -2.810831    2.036120   -0.702540
  H    -3.457916    0.405090   -0.379274
  H    -3.210133    0.948526   -2.050769

----------------------------
CARTESIAN COORDINATES (A.U.)
----------------------------
  NO LB    ZA    FRAG    MASS        X           Y           Z
   0 C   6.0000    0    12.011    4.223239    3.308384    2.235549
   1 C   6.0000    0    12.011    2.713206    1.959720    0.241069
   2 O   8.0000    0    15.999    2.158529    2.955110   -1.791620
   3 N   7.0000    0    14.007    1.952841   -0.381731    0.834296
   4 C   6.0000    0    12.011    0.591543   -2.011881   -0.917676
   5 C   6.0000    0    12.011    1.050230   -4.768198   -0.262826
   6 C   6.0000    0    12.011   -2.254773   -1.369435   -0.829503
   7 O   8.0000    0    15.999   -3.825613   -2.786719    0.114790
   8 N   7.0000    0    14.007   -2.799535    0.865710   -1.858026
   9 C   6.0000    0    12.011   -5.330898    1.889085   -1.951038
  10 H   1.0000    0     1.008    2.927234    4.390089    3.410869
  11 H   1.0000    0     1.008    5.269272    1.998719    3.414736
  12 H   1.0000    0     1.008    5.505232    4.628908    1.326488
  13 H   1.0000    0     1.008    2.401943   -1.141229    2.523509
  14 H   1.0000    0     1.008    1.270425   -1.573887   -2.826249
  15 H   1.0000    0     1.008    0.139805   -5.964290   -1.659720
  16 H   1.0000    0     1.008    0.216547   -5.193293    1.566824
  17 H   1.0000    0     1.008    3.061220   -5.174876   -0.233300
  18 H   1.0000    0     1.008   -1.357951    1.964142   -2.493760
  19 H   1.0000    0     1.008   -5.311700    3.847709   -1.327607
  20 H   1.0000    0     1.008   -6.534514    0.765508   -0.716724
  21 H   1.0000    0     1.008   -6.066272    1.792454   -3.875391

      -----------------------------------------------------------      
     |                   =====================                   |     
     |                           x T B                           |     
     |                   =====================                   |     
     |                         S. Grimme                         |     
     |          Mulliken Center for Theoretical Chemistry        |     
     |                    University of Bonn                     |     
      -----------------------------------------------------------      

   * xtb version 6.7.1 (edcfbbe) compiled by 'albert@albert-system' on 2024-07-22

   xtb is free software: you can redistribute it and/or modify it under
   the terms of the GNU Lesser General Public License as published by
   the Free Software Foundation, either version 3 of the License, or
   (at your option) any later version.
   
   xtb is distributed in the hope that it will be useful,
   but WITHOUT ANY WARRANTY; without even the implied warranty of
   MERCHANTABILITY or FITNESS FOR A PARTICULAR PURPOSE.  See the
   GNU Lesser General Public License for more details.
   
   Cite this work as:
   * C. Bannwarth, E. Caldeweyher, S. Ehlert, A. Hansen, P. Pracht,
     J. Seibert, S. Spicher, S. Grimme, WIREs Comput. Mol. Sci., 2020, 11,
     e01493. DOI: 10.1002/wcms.1493
   
   for GFN2-xTB:
   * C. Bannwarth, S. Ehlert and S. Grimme., J. Chem. Theory Comput., 2019,
     15, 1652-1671. DOI: 10.1021/acs.jctc.8b01176
   for GFN1-xTB:
   * S. Grimme, C. Bannwarth, P. Shushkov, J. Chem. Theory Comput., 2017,
     13, 1989-2009. DOI: 10.1021/acs.jctc.7b00118
   for GFN0-xTB:
   * P. Pracht, E. Caldeweyher, S. Ehlert, S. Grimme, ChemRxiv, 2019, preprint.
     DOI: 10.26434/chemrxiv.8326202.v1
   for GFN-FF:
   * S. Spicher and S. Grimme, Angew. Chem. Int. Ed., 2020, 59, 15665-15673.
     DOI: 10.1002/anie.202004239
   
   for ALPB and GBSA implicit solvation:
   * S. Ehlert, M. Stahn, S. Spicher, S. Grimme, J. Chem. Theory Comput.,
     2021, 17, 4250-4261. DOI: 10.1021/acs.jctc.1c00471
   
   for ddCOSMO and CPCM-X implicit solvation:
   * M. Stahn, S. Ehlert, S. Grimme, J. Phys. Chem. A,
     2023, XX, XXXX-XXXX. DOI: 10.1021/acs.jpca.3c04382
   
   for DFT-D4:
   * E. Caldeweyher, C. Bannwarth and S. Grimme, J. Chem. Phys., 2017,
     147, 034112. DOI: 10.1063/1.4993215
   * E. Caldeweyher, S. Ehlert, A. Hansen, H. Neugebauer, S. Spicher,
     C. Bannwarth and S. Grimme, J. Chem. Phys., 2019, 150, 154122.
     DOI: 10.1063/1.5090222
   * E. Caldeweyher, J.-M. Mewes, S. Ehlert and S. Grimme, Phys. Chem. Chem. Phys.
     2020, 22, 8499-8512. DOI: 10.1039/D0CP00502A
   
   for sTDA-xTB:
   * S. Grimme and C. Bannwarth, J. Chem. Phys., 2016, 145, 054103.
     DOI: 10.1063/1.4959605
   
   in the mass-spec context:
   * V. Asgeirsson, C. Bauer and S. Grimme, Chem. Sci., 2017, 8, 4879.
     DOI: 10.1039/c7sc00601b
   * J. Koopman and S. Grimme, ACS Omega 2019, 4, 12, 15120-15133.
     DOI: 10.1021/acsomega.9b02011
   
   for metadynamics refer to:
   * S. Grimme, J. Chem. Theory Comput., 2019, 155, 2847-2862
     DOI: 10.1021/acs.jctc.9b00143
   
   for SPH calculations refer to:
   * S. Spicher and S. Grimme, J. Chem. Theory Comput., 2021, 17, 1701-1714
     DOI: 10.1021/acs.jctc.0c01306
   
   for ONIOM refer to:
   * C. Plett, A. Katbashev, S. Ehlert, S. Grimme, M. Bursch,
     Phys. Chem. Chem. Phys., 2023, 25, 17860-17868. DOI: 10.1039/D3CP02178E
   
   for DIPRO refer to:
   * J. Kohn, N. Gildemeister, S. Grimme, D. Fazzi, A. Hansen,
     J. Chem. Phys., 2023, just accepted.
   
   for PTB refer to:
   * S. Grimme, M. Mueller, A. Hansen, J. Chem. Phys., 2023, 158, 124111.
     DOI: 10.1063/5.0137838
   
   with help from (in alphabetical order)
   P. Atkinson, C. Bannwarth, F. Bohle, G. Brandenburg, E. Caldeweyher
   M. Checinski, S. Dohm, S. Ehlert, S. Ehrlich, I. Gerasimov, C. Hölzer
   A. Katbashev, J. Kohn, J. Koopman, C. Lavigne, S. Lehtola, F. März, M. Müller,
   F. Musil, H. Neugebauer, J. Pisarek, C. Plett, P. Pracht, F. Pultar,
   J. Seibert, P. Shushkov, S. Spicher, M. Stahn, M. Steiner, T. Strunk,
   J. Stückrath, T. Rose, and J. Unsleber
   
 * started run on 2026/09/28 at 23:19:03.051     
   ID    Z sym.   atoms
    1    6 C      1, 2, 5-7, 10
    2    8 O      3, 8
    3    7 N      4, 9
    4    1 H      11-22

           -------------------------------------------------
          |                Calculation Setup                |
           -------------------------------------------------

          program call               : /app1/ebapps/arches/flat-avx2/software/ORCA/6.1.0-gompi-2023b-avx2/bin/otool_xtb o01-xtb-opt-freq_XTB.xyz --grad -c 0 -u 0 -P 8 --namespace o01-xtb-opt-freq --input o01-xtb-opt-freq_XTB.input.tmp --alpb WATER --acc 0.200000
          hostname                   : IN-006
          calculation namespace      : o01-xtb-opt-freq
          coordinate file            : o01-xtb-opt-freq_XTB.xyz
          omp threads                :                     8


           -------------------------------------------------
          |                 G F N 2 - x T B                 |
           -------------------------------------------------

        Reference                      10.1021/acs.jctc.8b01176
      * Hamiltonian:
        H0-scaling (s, p, d)           1.850000    2.230000    2.230000
        zeta-weighting                 0.500000
      * Dispersion:
        s8                             2.700000
        a1                             0.520000
        a2                             5.000000
        s9                             5.000000
      * Repulsion:
        kExp                           1.500000    1.000000
        rExp                           1.000000
      * Coulomb:
        alpha                          2.000000
        third order                    shell-resolved
        anisotropic                    true
        a3                             3.000000
        a5                             4.000000
        cn-shift                       1.200000
        cn-exp                         4.000000
        max-rad                        5.000000

      * Solvation model:               ALPB
        Solvent                        WATER
        Parameter file                 internal GFN2-xTB/ALPB
        Dielectric constant                8.0200E+01
        Reference state                gsolv [1 M gas/solution]
        Free energy shift                  1.0808E-03 Eh       6.7819E-01 kcal/mol
        Temperature                        2.9815E+02 K
        Density                            1.0000E+00 kg/L
        Solvent mass                       1.8000E+01 g/mol
        Interaction kernel             P16
        Born radius scaling (c1)           1.4744E+00
        Born radii integrator          GBOBC
        Born offset                        0.0000E+00 a0       0.0000E+00 AA
        H-bond correction              true
        Ion screening                  false
        Surface tension                    1.0000E-05 Eh       1.5569E+01 dyn/cm
        Grid points                               230 per atom
q/qsh data taken from xtbrestart
CAMM data taken from xtbrestart

          ...................................................
          :                      SETUP                      :
          :.................................................:
          :  # basis functions                  52          :
          :  # atomic orbitals                  52          :
          :  # shells                           32          :
          :  # electrons                        58          :
          :  max. iterations                   250          :
          :  Hamiltonian                  GFN2-xTB          :
          :  restarted?                       true          :
          :  GBSA solvation                   true          :
          :  PC potential                    false          :
          :  electronic temp.          300.0000000     K    :
          :  accuracy                    0.2000000          :
          :  -> integral cutoff          0.3198970E+02      :
          :  -> integral neglect         0.2000000E-08      :
          :  -> SCF convergence          0.2000000E-06 Eh   :
          :  -> wf. convergence          0.2000000E-04 e    :
          :  Broyden damping             0.4000000          :
          :  net charge                          0          :
          :  unpaired electrons                  0          :
          ...................................................

 iter      E             dE          RMSdq      gap      omega  full diag
   1    -33.3785026 -0.333785E+02  0.851E-02    4.62       0.0  T
   2    -33.3785048 -0.224158E-05  0.504E-02    4.62       1.0  T
   3    -33.3785050 -0.192124E-06  0.566E-03    4.62       3.8  T
   4    -33.3785052 -0.212394E-06  0.219E-03    4.62       9.8  T
   5    -33.3785052 -0.126755E-07  0.110E-03    4.62      19.4  T
   6    -33.3785052 -0.210530E-08  0.236E-04    4.62      90.5  T
   7    -33.3785052 -0.102744E-09  0.107E-04    4.62     198.4  T
   8    -33.3785052 -0.266596E-10  0.296E-05    4.62     719.1  T

   *** convergence criteria satisfied after 8 iterations ***

         #    Occupation            Energy/Eh            Energy/eV
      -------------------------------------------------------------
         1        2.0000           -0.7086550             -19.2835
       ...           ...                  ...                  ...
        23        2.0000           -0.4657875             -12.6747
        24        2.0000           -0.4622021             -12.5772
        25        2.0000           -0.4556641             -12.3993
        26        2.0000           -0.4321580             -11.7596
        27        2.0000           -0.4080668             -11.1041
        28        2.0000           -0.4018905             -10.9360
        29        2.0000           -0.3906297             -10.6296 (HOMO)
        30                         -0.2210049              -6.0139 (LUMO)
        31                         -0.2127453              -5.7891
        32                          0.0033994               0.0925
        33                          0.0073737               0.2006
        34                          0.0836152               2.2753
       ...                                ...                  ...
        52                          0.6088116              16.5666
      -------------------------------------------------------------
                  HL-Gap            0.1696248 Eh            4.6157 eV
             Fermi-level           -0.3058173 Eh           -8.3217 eV

 SCC (total)                   0 d,  0 h,  0 min,  0.010 sec
 SCC setup                      ...        0 min,  0.000 sec (  3.791%)
 Dispersion                     ...        0 min,  0.000 sec (  1.536%)
 classical contributions        ...        0 min,  0.000 sec (  0.195%)
 integral evaluation            ...        0 min,  0.001 sec (  6.930%)
 iterations                     ...        0 min,  0.007 sec ( 70.312%)
 molecular gradient             ...        0 min,  0.002 sec ( 15.948%)
 printout                       ...        0 min,  0.000 sec (  1.059%)

         :::::::::::::::::::::::::::::::::::::::::::::::::::::
         ::                     SUMMARY                     ::
         :::::::::::::::::::::::::::::::::::::::::::::::::::::
         :: total energy             -32.990758190421 Eh    ::
         :: total w/o Gsasa/hb       -32.988391143019 Eh    ::
         :: gradient norm              0.004334174166 Eh/a0 ::
         :: HOMO-LUMO gap              4.615724976445 eV    ::
         ::.................................................::
         :: SCC energy               -33.378402931437 Eh    ::
         :: -> isotropic ES            0.104522455398 Eh    ::
         :: -> anisotropic ES          0.001415511024 Eh    ::
         :: -> anisotropic XC          0.010693535693 Eh    ::
         :: -> dispersion             -0.015448358605 Eh    ::
         :: -> Gsolv                  -0.020352346735 Eh    ::
         ::    -> Gelec               -0.017985299334 Eh    ::
         ::    -> Gsasa                0.001556902526 Eh    ::
         ::    -> Ghb                 -0.005004709625 Eh    ::
         ::    -> Gshift               0.001080759698 Eh    ::
         :: repulsion energy           0.387644741016 Eh    ::
         :: add. restraining           0.000000000000 Eh    ::
         :: total charge               0.000000000000 e     ::
         :::::::::::::::::::::::::::::::::::::::::::::::::::::


Property printout bound to 'properties.out'

           -------------------------------------------------
          | TOTAL ENERGY              -32.990758190421 Eh   |
          | GRADIENT NORM               0.004334174166 Eh/α |
          | HOMO-LUMO GAP               4.615724976445 eV   |
           -------------------------------------------------

------------------------------------------------------------------------
 * finished run on 2026/09/28 at 23:19:03.112     
------------------------------------------------------------------------
 total:
 * wall-time:     0 d,  0 h,  0 min,  0.060 sec
 *  cpu-time:     0 d,  0 h,  0 min,  0.391 sec
 * ratio c/w:     6.528 speedup
 SCF:
 * wall-time:     0 d,  0 h,  0 min,  0.011 sec
 *  cpu-time:     0 d,  0 h,  0 min,  0.083 sec
 * ratio c/w:     7.888 speedup


-------------------------   --------------------
FINAL SINGLE POINT ENERGY       -32.990758190420
-------------------------   --------------------


-------------
DIPOLE MOMENT
-------------
                                X             Y             Z
Total Dipole Moment    :      1.18800       0.37300       0.83100
                        -----------------------------------------
Magnitude (a.u.)       :      1.49701
Magnitude (Debye)      :      3.80509


------------------
CARTESIAN GRADIENT
------------------

   1   C   :    0.000074431   -0.000084653   -0.000390266
   2   C   :    0.000683496   -0.000220877   -0.000080189
   3   O   :   -0.000260894    0.000368132   -0.000004501
   4   N   :   -0.001387142    0.001120372    0.002020469
   5   C   :    0.001202134   -0.001453753   -0.001112014
   6   C   :    0.000072763    0.000132424   -0.000154171
   7   C   :   -0.000990508   -0.000563278    0.000358102
   8   O   :    0.000358288    0.000427959   -0.000219369
   9   N   :    0.000554013    0.000216114   -0.000396677
  10   C   :    0.000101241   -0.000215858    0.000910457
  11   H   :   -0.000113058    0.000161609   -0.000142955
  12   H   :   -0.000156323    0.000010373    0.000158421
  13   H   :   -0.000054353    0.000026779   -0.000069385
  14   H   :    0.000480243   -0.000675118   -0.000584340
  15   H   :   -0.000333699   -0.000084161   -0.000065980
  16   H   :   -0.000097220    0.000034695    0.000050877
  17   H   :   -0.000137782    0.000164117    0.000057548
  18   H   :   -0.000008977    0.000103954   -0.000072197
  19   H   :   -0.000056923    0.000681477    0.000385778
  20   H   :    0.000336433    0.000053669   -0.000411989
  21   H   :   -0.000292679    0.000195319    0.000033639
  22   H   :    0.000026516   -0.000399291   -0.000271256

Difference to translation invariance:
           :   -0.0000000000    0.0000000000   -0.0000000000

Difference to rotation invariance:
           :    0.0000225539    0.0000933319   -0.0001483186

Norm of the Cartesian gradient     ...    0.0043341742
RMS gradient                       ...    0.0005335000
MAX gradient                       ...    0.0020204691
------------------------------------------------------------------------------
                         ORCA GEOMETRY RELAXATION STEP
------------------------------------------------------------------------------

Reading the OPT-File                    .... done
Getting information on internals        .... done
Copying old internal coords+grads       .... done
Making the new internal coordinates     .... (2022 redundants) done
Validating the new internal coordinates .... (2022 redundants) done
Calculating the B-matrix                .... done
Calculating the G,G- and P matrices     .... done
Transforming gradient to internals      .... done
Projecting the internal gradient        .... done
Number of atoms                         ....  22
Number of internal coordinates          ....  92
Current Energy                          ....   -32.990758190 Eh
Current gradient norm                   ....     0.004334174 Eh/bohr
Maximum allowed component of the step   ....  0.300
Current trust radius                    ....  0.700
Updating the Hessian (BFGS)             .... done
Forming the augmented Hessian           .... done
Diagonalizing the augmented Hessian     .... done
Last element of RFO vector              ....  0.960778727
Lowest eigenvalues of augmented Hessian:
 -0.000248085  0.001483641  0.009533948  0.011701621  0.012070112
Length of the computed step             ....  0.288636837
The final length of the internal step   ....  0.288636837
Converting the step to Cartesian space:
 Initial RMS(Int)=    0.0300924704
Transforming coordinates:
 Iter   0:  RMS(Cart)=    0.0434136102 RMS(Int)=    0.0300805449
 Iter   5:  RMS(Cart)=    0.0000000517 RMS(Int)=    0.0000000409
done
Storing new coordinates                 .... done
The predicted energy change is          ....    -0.000134377
Previously predicted energy change      ....    -0.000118093
Actually observed energy change         ....    -0.000172264
Ratio of predicted to observed change   ....     1.458716183
New trust radius                        ....     0.700000000

                                .--------------------.
          ----------------------|Geometry convergence|-------------------------
          Item                value                   Tolerance       Converged
          ---------------------------------------------------------------------
          Energy change      -0.0001722638            0.0000050000      NO
          RMS gradient        0.0002948452            0.0001000000      NO
          MAX gradient        0.0008658710            0.0003000000      NO
          RMS step            0.0300924704            0.0020000000      NO
          MAX step            0.1276800222            0.0040000000      NO
          -------------------------------------------------------------------------
          ........................................................
          Max(Bonds)      0.0045      Max(Angles)    0.57
          Max(Dihed)        7.32      Max(Improp)    0.00
          ---------------------------------------------------------------------

The optimization has not yet converged - more geometry cycles are needed


    ---------------------------------------------------------------------------
                         Redundant Internal Coordinates
                            (Angstroem and degrees)

        Definition                    Value    dE/dq     Step     New-Value
    ----------------------------------------------------------------------------
     1. B(C   1,C   0)                1.5039 -0.000388  0.0010    1.5049   
     2. B(O   2,C   1)                1.2331  0.000139 -0.0014    1.2318   
     3. B(N   3,C   1)                1.3400  0.000569  0.0000    1.3401   
     4. B(C   4,N   3)                1.4569  0.000866 -0.0009    1.4560   
     5. B(C   5,C   4)                1.5187 -0.000472 -0.0003    1.5184   
     6. B(C   6,C   4)                1.5448  0.000323 -0.0012    1.5436   
     7. B(O   7,C   6)                1.2260 -0.000594 -0.0003    1.2257   
     8. B(N   8,C   6)                1.3335  0.000235 -0.0002    1.3333   
     9. B(C   9,N   8)                1.4457 -0.000307  0.0004    1.4461   
    10. B(H  10,C   0)                1.0885  0.000077 -0.0009    1.0876   
    11. B(H  11,C   0)                1.0845  0.000004  0.0003    1.0847   
    12. B(H  12,C   0)                1.0863  0.000013 -0.0006    1.0857   
    13. B(H  13,N   3)                1.0085 -0.000136 -0.0003    1.0082   
    14. B(H  14,C   4)                1.0967 -0.000066 -0.0008    1.0959   
    15. B(H  15,C   5)                1.0859 -0.000013 -0.0003    1.0855   
    16. B(H  16,C   5)                1.0875  0.000073 -0.0003    1.0872   
    17. B(H  17,C   5)                1.0858 -0.000029  0.0003    1.0862   
    18. B(H  18,O   2)                1.9687 -0.000306  0.0045    1.9732   
    19. B(H  18,N   8)                1.0164 -0.000026  0.0000    1.0164   
    20. B(H  19,C   9)                1.0877 -0.000072  0.0007    1.0885   
    21. B(H  20,C   9)                1.0890  0.000085 -0.0013    1.0877   
    22. B(H  21,C   9)                1.0913  0.000264 -0.0005    1.0909   
    23. A(H  11,C   0,H  12)          110.31  0.000131   -0.37    109.94   
    24. A(C   1,C   0,H  11)          111.82  0.000159   -0.09    111.73   
    25. A(C   1,C   0,H  12)          109.05 -0.000089    0.08    109.13   
    26. A(C   1,C   0,H  10)          108.41 -0.000226    0.14    108.55   
    27. A(H  10,C   0,H  12)          107.95 -0.000026    0.46    108.42   
    28. A(H  10,C   0,H  11)          109.20  0.000038   -0.18    109.02   
    29. A(O   2,C   1,N   3)          121.86  0.000217    0.04    121.90   
    30. A(C   0,C   1,N   3)          115.72  0.000509   -0.28    115.43   
    31. A(C   0,C   1,O   2)          122.41 -0.000729    0.26    122.66   
    32. A(C   4,N   3,H  13)          116.40 -0.000376    0.16    116.56   
    33. A(C   1,N   3,C   4)          123.15 -0.000228   -0.17    122.98   
    34. A(C   1,N   3,H  13)          120.36  0.000578   -0.25    120.11   
    35. A(C   5,C   4,C   6)          111.12  0.000211   -0.08    111.04   
    36. A(N   3,C   4,C   5)          110.15  0.000169   -0.09    110.06   
    37. A(N   3,C   4,C   6)          109.42 -0.000633   -0.12    109.31   
    38. A(C   6,C   4,H  14)          107.50 -0.000019    0.23    107.72   
    39. A(C   5,C   4,H  14)          111.15 -0.000079   -0.19    110.96   
    40. A(N   3,C   4,H  14)          107.39  0.000338    0.25    107.65   
    41. A(H  16,C   5,H  17)          110.11  0.000197   -0.31    109.79   
    42. A(C   4,C   5,H  17)          110.50 -0.000089    0.13    110.63   
    43. A(H  15,C   5,H  16)          107.79  0.000075    0.01    107.80   
    44. A(C   4,C   5,H  16)          109.69 -0.000276    0.28    109.97   
    45. A(C   4,C   5,H  15)          109.49  0.000011    0.21    109.70   
    46. A(H  15,C   5,H  17)          109.21  0.000088   -0.31    108.91   
    47. A(O   7,C   6,N   8)          124.22 -0.000015   -0.16    124.06   
    48. A(C   4,C   6,N   8)          113.18 -0.000129    0.00    113.18   
    49. A(C   4,C   6,O   7)          122.60  0.000144    0.17    122.77   
    50. A(C   9,N   8,H  18)          118.03 -0.000470    0.20    118.23   
    51. A(C   6,N   8,H  18)          118.69  0.000653   -0.57    118.12   
    52. A(C   6,N   8,C   9)          123.12 -0.000186    0.10    123.22   
    53. A(N   8,C   9,H  19)          109.75 -0.000368    0.23    109.99   
    54. A(H  20,C   9,H  21)          109.00 -0.000151    0.39    109.39   
    55. A(H  19,C   9,H  21)          109.33  0.000255   -0.13    109.20   
    56. A(N   8,C   9,H  21)          110.16 -0.000507   -0.23    109.93   
    57. A(H  19,C   9,H  20)          110.11  0.000108   -0.25    109.86   
    58. A(N   8,C   9,H  20)          108.48  0.000664   -0.00    108.48   
    59. D(O   2,C   1,C   0,H  10)     86.75 -0.000223    3.53     90.28   
    60. D(O   2,C   1,C   0,H  11)   -152.81 -0.000226    3.33   -149.48   
    61. D(N   3,C   1,C   0,H  11)     28.69 -0.000123    3.20     31.89   
    62. D(N   3,C   1,C   0,H  10)    -91.76 -0.000120    3.40    -88.36   
    63. D(O   2,C   1,C   0,H  12)    -30.54 -0.000016    2.86    -27.69   
    64. D(H  13,N   3,C   1,C   0)     -0.26 -0.000450    0.58      0.32   
    65. D(C   4,N   3,C   1,C   0)   -176.61  0.000060    0.00   -176.61   
    66. D(H  13,N   3,C   1,O   2)   -178.77 -0.000332    0.45   -178.33   
    67. D(C   4,N   3,C   1,O   2)      4.88  0.000178   -0.13      4.74   
    68. D(H  14,C   4,N   3,C   1)     32.61 -0.000311    0.32     32.94   
    69. D(C   6,C   4,N   3,H  13)     99.74  0.000317   -0.59     99.14   
    70. D(C   6,C   4,N   3,C   1)    -83.78 -0.000142   -0.01    -83.80   
    71. D(C   5,C   4,N   3,H  13)    -22.70  0.000360   -0.37    -23.07   
    72. D(C   5,C   4,N   3,C   1)    153.78 -0.000099    0.21    153.99   
    73. D(H  15,C   5,C   4,N   3)   -175.91 -0.000407    1.10   -174.81   
    74. D(H  16,C   5,C   4,H  14)   -175.10  0.000139    0.96   -174.15   
    75. D(H  16,C   5,C   4,C   6)    -55.43  0.000203    1.06    -54.37   
    76. D(H  16,C   5,C   4,N   3)     66.00 -0.000341    0.81     66.81   
    77. D(H  15,C   5,C   4,H  14)    -57.01  0.000073    1.25    -55.77   
    78. D(H  15,C   5,C   4,C   6)     62.66  0.000137    1.36     64.01   
    79. D(N   8,C   6,C   4,C   5)   -167.65 -0.000009    1.68   -165.97   
    80. D(N   8,C   6,C   4,N   3)     70.49  0.000067    1.91     72.40   
    81. D(O   7,C   6,C   4,H  14)    134.65 -0.000016    1.26    135.91   
    82. D(O   7,C   6,C   4,C   5)     12.83 -0.000035    1.39     14.22   
    83. D(O   7,C   6,C   4,N   3)   -109.02  0.000041    1.62   -107.40   
    84. D(H  18,N   8,C   6,O   7)    176.07 -0.000074   -1.24    174.83   
    85. D(H  18,N   8,C   6,C   4)     -3.44 -0.000101   -1.54     -4.98   
    86. D(C   9,N   8,C   6,O   7)      0.67 -0.000016    1.64      2.30   
    87. D(C   9,N   8,C   6,C   4)   -178.84 -0.000043    1.33   -177.50   
    88. D(H  19,C   9,N   8,H  18)    -42.72  0.000505   -4.26    -46.97   
    89. D(H  19,C   9,N   8,C   6)    132.71  0.000496   -7.15    125.57   
    90. D(H  21,C   9,N   8,C   6)   -106.86  0.000256   -7.32   -114.18   
    91. D(H  20,C   9,N   8,H  18)   -163.06  0.000187   -4.09   -167.15   
    92. D(H  20,C   9,N   8,C   6)     12.37  0.000178   -6.98      5.39   
    ----------------------------------------------------------------------------

Geometry step timings:
Preparation and reading OPT file:      0.001 s ( 3.167 %)
Internal coordinates            :      0.000 s ( 0.207 %)
B/P matrices and projection     :      0.002 s ( 7.165 %)
Hessian update/contruction      :      0.016 s (48.449 %)
Making the step                 :      0.002 s ( 6.387 %)
Converting the step to Cartesian:      0.000 s ( 0.639 %)
Storing new data                :      0.005 s (15.288 %)
Checking convergence            :      0.000 s ( 0.278 %)
Final printing                  :      0.006 s (18.417 %)
Total time                      :      0.034 s

Time for energy+gradient        :      0.145 s
Time for complete geometry iter :      0.208 s

         *************************************************************
         *                GEOMETRY OPTIMIZATION CYCLE   9            *
         *************************************************************
---------------------------------
CARTESIAN COORDINATES (ANGSTROEM)
---------------------------------
  C     2.235178    1.751289    1.177152
  C     1.433289    1.038507    0.121802
  O     1.137731    1.560157   -0.954295
  N     1.033526   -0.199940    0.441051
  C     0.311505   -1.063403   -0.482359
  C     0.552603   -2.520642   -0.130277
  C    -1.192618   -0.721318   -0.429377
  O    -2.021668   -1.453356    0.098982
  N    -1.485633    0.442936   -1.009301
  C    -2.819679    1.000325   -1.038525
  H     1.548614    2.275168    1.838277
  H     2.832001    1.060423    1.762938
  H     2.878682    2.484286    0.700433
  H     1.268121   -0.593354    1.339184
  H     0.668828   -0.840339   -1.494060
  H     0.087468   -3.158748   -0.875184
  H     0.101263   -2.749717    0.831909
  H     1.616784   -2.735569   -0.097820
  H    -0.717458    1.015521   -1.349130
  H    -2.810331    2.009321   -0.630302
  H    -3.471347    0.366271   -0.441595
  H    -3.186852    1.032182   -2.065240

----------------------------
CARTESIAN COORDINATES (A.U.)
----------------------------
  NO LB    ZA    FRAG    MASS        X           Y           Z
   0 C   6.0000    0    12.011    4.223873    3.309457    2.224495
   1 C   6.0000    0    12.011    2.708523    1.962494    0.230173
   2 O   8.0000    0    15.999    2.150001    2.948269   -1.803357
   3 N   7.0000    0    14.007    1.953080   -0.377831    0.833466
   4 C   6.0000    0    12.011    0.588659   -2.009540   -0.911527
   5 C   6.0000    0    12.011    1.044268   -4.763322   -0.246187
   6 C   6.0000    0    12.011   -2.253722   -1.363094   -0.811406
   7 O   8.0000    0    15.999   -3.820399   -2.746444    0.187048
   8 N   7.0000    0    14.007   -2.807440    0.837028   -1.907303
   9 C   6.0000    0    12.011   -5.328422    1.890341   -1.962528
  10 H   1.0000    0     1.008    2.926457    4.299444    3.473841
  11 H   1.0000    0     1.008    5.351705    2.003909    3.331470
  12 H   1.0000    0     1.008    5.439920    4.694620    1.323626
  13 H   1.0000    0     1.008    2.396402   -1.121277    2.530692
  14 H   1.0000    0     1.008    1.263901   -1.588012   -2.823365
  15 H   1.0000    0     1.008    0.165290   -5.969169   -1.653858
  16 H   1.0000    0     1.008    0.191359   -5.196212    1.572080
  17 H   1.0000    0     1.008    3.055279   -5.169476   -0.184853
  18 H   1.0000    0     1.008   -1.355800    1.919057   -2.549486
  19 H   1.0000    0     1.008   -5.310756    3.797066   -1.191098
  20 H   1.0000    0     1.008   -6.559896    0.692152   -0.834494
  21 H   1.0000    0     1.008   -6.022277    1.950541   -3.902737

      -----------------------------------------------------------      
     |                   =====================                   |     
     |                           x T B                           |     
     |                   =====================                   |     
     |                         S. Grimme                         |     
     |          Mulliken Center for Theoretical Chemistry        |     
     |                    University of Bonn                     |     
      -----------------------------------------------------------      

   * xtb version 6.7.1 (edcfbbe) compiled by 'albert@albert-system' on 2024-07-22

   xtb is free software: you can redistribute it and/or modify it under
   the terms of the GNU Lesser General Public License as published by
   the Free Software Foundation, either version 3 of the License, or
   (at your option) any later version.
   
   xtb is distributed in the hope that it will be useful,
   but WITHOUT ANY WARRANTY; without even the implied warranty of
   MERCHANTABILITY or FITNESS FOR A PARTICULAR PURPOSE.  See the
   GNU Lesser General Public License for more details.
   
   Cite this work as:
   * C. Bannwarth, E. Caldeweyher, S. Ehlert, A. Hansen, P. Pracht,
     J. Seibert, S. Spicher, S. Grimme, WIREs Comput. Mol. Sci., 2020, 11,
     e01493. DOI: 10.1002/wcms.1493
   
   for GFN2-xTB:
   * C. Bannwarth, S. Ehlert and S. Grimme., J. Chem. Theory Comput., 2019,
     15, 1652-1671. DOI: 10.1021/acs.jctc.8b01176
   for GFN1-xTB:
   * S. Grimme, C. Bannwarth, P. Shushkov, J. Chem. Theory Comput., 2017,
     13, 1989-2009. DOI: 10.1021/acs.jctc.7b00118
   for GFN0-xTB:
   * P. Pracht, E. Caldeweyher, S. Ehlert, S. Grimme, ChemRxiv, 2019, preprint.
     DOI: 10.26434/chemrxiv.8326202.v1
   for GFN-FF:
   * S. Spicher and S. Grimme, Angew. Chem. Int. Ed., 2020, 59, 15665-15673.
     DOI: 10.1002/anie.202004239
   
   for ALPB and GBSA implicit solvation:
   * S. Ehlert, M. Stahn, S. Spicher, S. Grimme, J. Chem. Theory Comput.,
     2021, 17, 4250-4261. DOI: 10.1021/acs.jctc.1c00471
   
   for ddCOSMO and CPCM-X implicit solvation:
   * M. Stahn, S. Ehlert, S. Grimme, J. Phys. Chem. A,
     2023, XX, XXXX-XXXX. DOI: 10.1021/acs.jpca.3c04382
   
   for DFT-D4:
   * E. Caldeweyher, C. Bannwarth and S. Grimme, J. Chem. Phys., 2017,
     147, 034112. DOI: 10.1063/1.4993215
   * E. Caldeweyher, S. Ehlert, A. Hansen, H. Neugebauer, S. Spicher,
     C. Bannwarth and S. Grimme, J. Chem. Phys., 2019, 150, 154122.
     DOI: 10.1063/1.5090222
   * E. Caldeweyher, J.-M. Mewes, S. Ehlert and S. Grimme, Phys. Chem. Chem. Phys.
     2020, 22, 8499-8512. DOI: 10.1039/D0CP00502A
   
   for sTDA-xTB:
   * S. Grimme and C. Bannwarth, J. Chem. Phys., 2016, 145, 054103.
     DOI: 10.1063/1.4959605
   
   in the mass-spec context:
   * V. Asgeirsson, C. Bauer and S. Grimme, Chem. Sci., 2017, 8, 4879.
     DOI: 10.1039/c7sc00601b
   * J. Koopman and S. Grimme, ACS Omega 2019, 4, 12, 15120-15133.
     DOI: 10.1021/acsomega.9b02011
   
   for metadynamics refer to:
   * S. Grimme, J. Chem. Theory Comput., 2019, 155, 2847-2862
     DOI: 10.1021/acs.jctc.9b00143
   
   for SPH calculations refer to:
   * S. Spicher and S. Grimme, J. Chem. Theory Comput., 2021, 17, 1701-1714
     DOI: 10.1021/acs.jctc.0c01306
   
   for ONIOM refer to:
   * C. Plett, A. Katbashev, S. Ehlert, S. Grimme, M. Bursch,
     Phys. Chem. Chem. Phys., 2023, 25, 17860-17868. DOI: 10.1039/D3CP02178E
   
   for DIPRO refer to:
   * J. Kohn, N. Gildemeister, S. Grimme, D. Fazzi, A. Hansen,
     J. Chem. Phys., 2023, just accepted.
   
   for PTB refer to:
   * S. Grimme, M. Mueller, A. Hansen, J. Chem. Phys., 2023, 158, 124111.
     DOI: 10.1063/5.0137838
   
   with help from (in alphabetical order)
   P. Atkinson, C. Bannwarth, F. Bohle, G. Brandenburg, E. Caldeweyher
   M. Checinski, S. Dohm, S. Ehlert, S. Ehrlich, I. Gerasimov, C. Hölzer
   A. Katbashev, J. Kohn, J. Koopman, C. Lavigne, S. Lehtola, F. März, M. Müller,
   F. Musil, H. Neugebauer, J. Pisarek, C. Plett, P. Pracht, F. Pultar,
   J. Seibert, P. Shushkov, S. Spicher, M. Stahn, M. Steiner, T. Strunk,
   J. Stückrath, T. Rose, and J. Unsleber
   
 * started run on 2026/09/28 at 23:19:03.260     
   ID    Z sym.   atoms
    1    6 C      1, 2, 5-7, 10
    2    8 O      3, 8
    3    7 N      4, 9
    4    1 H      11-22

           -------------------------------------------------
          |                Calculation Setup                |
           -------------------------------------------------

          program call               : /app1/ebapps/arches/flat-avx2/software/ORCA/6.1.0-gompi-2023b-avx2/bin/otool_xtb o01-xtb-opt-freq_XTB.xyz --grad -c 0 -u 0 -P 8 --namespace o01-xtb-opt-freq --input o01-xtb-opt-freq_XTB.input.tmp --alpb WATER --acc 0.200000
          hostname                   : IN-006
          calculation namespace      : o01-xtb-opt-freq
          coordinate file            : o01-xtb-opt-freq_XTB.xyz
          omp threads                :                     8


           -------------------------------------------------
          |                 G F N 2 - x T B                 |
           -------------------------------------------------

        Reference                      10.1021/acs.jctc.8b01176
      * Hamiltonian:
        H0-scaling (s, p, d)           1.850000    2.230000    2.230000
        zeta-weighting                 0.500000
      * Dispersion:
        s8                             2.700000
        a1                             0.520000
        a2                             5.000000
        s9                             5.000000
      * Repulsion:
        kExp                           1.500000    1.000000
        rExp                           1.000000
      * Coulomb:
        alpha                          2.000000
        third order                    shell-resolved
        anisotropic                    true
        a3                             3.000000
        a5                             4.000000
        cn-shift                       1.200000
        cn-exp                         4.000000
        max-rad                        5.000000

      * Solvation model:               ALPB
        Solvent                        WATER
        Parameter file                 internal GFN2-xTB/ALPB
        Dielectric constant                8.0200E+01
        Reference state                gsolv [1 M gas/solution]
        Free energy shift                  1.0808E-03 Eh       6.7819E-01 kcal/mol
        Temperature                        2.9815E+02 K
        Density                            1.0000E+00 kg/L
        Solvent mass                       1.8000E+01 g/mol
        Interaction kernel             P16
        Born radius scaling (c1)           1.4744E+00
        Born radii integrator          GBOBC
        Born offset                        0.0000E+00 a0       0.0000E+00 AA
        H-bond correction              true
        Ion screening                  false
        Surface tension                    1.0000E-05 Eh       1.5569E+01 dyn/cm
        Grid points                               230 per atom
q/qsh data taken from xtbrestart
CAMM data taken from xtbrestart

          ...................................................
          :                      SETUP                      :
          :.................................................:
          :  # basis functions                  52          :
          :  # atomic orbitals                  52          :
          :  # shells                           32          :
          :  # electrons                        58          :
          :  max. iterations                   250          :
          :  Hamiltonian                  GFN2-xTB          :
          :  restarted?                       true          :
          :  GBSA solvation                   true          :
          :  PC potential                    false          :
          :  electronic temp.          300.0000000     K    :
          :  accuracy                    0.2000000          :
          :  -> integral cutoff          0.3198970E+02      :
          :  -> integral neglect         0.2000000E-08      :
          :  -> SCF convergence          0.2000000E-06 Eh   :
          :  -> wf. convergence          0.2000000E-04 e    :
          :  Broyden damping             0.4000000          :
          :  net charge                          0          :
          :  unpaired electrons                  0          :
          ...................................................

 iter      E             dE          RMSdq      gap      omega  full diag
   1    -33.3796838 -0.333797E+02  0.109E-01    4.62       0.0  T
   2    -33.3796858 -0.199628E-05  0.647E-02    4.62       1.0  T
   3    -33.3796862 -0.418075E-06  0.495E-03    4.62       4.3  T
   4    -33.3796864 -0.120738E-06  0.247E-03    4.62       8.6  T
   5    -33.3796864 -0.937823E-08  0.102E-03    4.62      20.9  T
   6    -33.3796864 -0.254582E-08  0.259E-04    4.62      82.3  T
   7    -33.3796864 -0.129972E-09  0.120E-04    4.62     178.4  T
   8    -33.3796864 -0.362590E-10  0.269E-05    4.62     792.1  T

   *** convergence criteria satisfied after 8 iterations ***

         #    Occupation            Energy/Eh            Energy/eV
      -------------------------------------------------------------
         1        2.0000           -0.7091287             -19.2964
       ...           ...                  ...                  ...
        23        2.0000           -0.4657032             -12.6724
        24        2.0000           -0.4621459             -12.5756
        25        2.0000           -0.4555927             -12.3973
        26        2.0000           -0.4323397             -11.7646
        27        2.0000           -0.4083493             -11.1118
        28        2.0000           -0.4018966             -10.9362
        29        2.0000           -0.3907572             -10.6330 (HOMO)
        30                         -0.2209173              -6.0115 (LUMO)
        31                         -0.2126782              -5.7873
        32                          0.0042685               0.1162
        33                          0.0074230               0.2020
        34                          0.0842409               2.2923
       ...                                ...                  ...
        52                          0.6099338              16.5971
      -------------------------------------------------------------
                  HL-Gap            0.1698399 Eh            4.6216 eV
             Fermi-level           -0.3058372 Eh           -8.3223 eV

 SCC (total)                   0 d,  0 h,  0 min,  0.014 sec
 SCC setup                      ...        0 min,  0.001 sec (  3.635%)
 Dispersion                     ...        0 min,  0.000 sec (  1.656%)
 classical contributions        ...        0 min,  0.000 sec (  0.498%)
 integral evaluation            ...        0 min,  0.001 sec (  5.586%)
 iterations                     ...        0 min,  0.010 sec ( 73.129%)
 molecular gradient             ...        0 min,  0.002 sec ( 14.331%)
 printout                       ...        0 min,  0.000 sec (  0.958%)

         :::::::::::::::::::::::::::::::::::::::::::::::::::::
         ::                     SUMMARY                     ::
         :::::::::::::::::::::::::::::::::::::::::::::::::::::
         :: total energy             -32.990937907934 Eh    ::
         :: total w/o Gsasa/hb       -32.988576110712 Eh    ::
         :: gradient norm              0.005534337371 Eh/a0 ::
         :: HOMO-LUMO gap              4.621578549324 eV    ::
         ::.................................................::
         :: SCC energy               -33.379583518570 Eh    ::
         :: -> isotropic ES            0.104321809126 Eh    ::
         :: -> anisotropic ES          0.001327564275 Eh    ::
         :: -> anisotropic XC          0.010635518599 Eh    ::
         :: -> dispersion             -0.015455003950 Eh    ::
         :: -> Gsolv                  -0.020278235814 Eh    ::
         ::    -> Gelec               -0.017916438592 Eh    ::
         ::    -> Gsasa                0.001557721407 Eh    ::
         ::    -> Ghb                 -0.005000278328 Eh    ::
         ::    -> Gshift               0.001080759698 Eh    ::
         :: repulsion energy           0.388645610636 Eh    ::
         :: add. restraining           0.000000000000 Eh    ::
         :: total charge               0.000000000000 e     ::
         :::::::::::::::::::::::::::::::::::::::::::::::::::::


Property printout bound to 'properties.out'

           -------------------------------------------------
          | TOTAL ENERGY              -32.990937907934 Eh   |
          | GRADIENT NORM               0.005534337371 Eh/α |
          | HOMO-LUMO GAP               4.621578549324 eV   |
           -------------------------------------------------

------------------------------------------------------------------------
 * finished run on 2026/09/28 at 23:19:03.330     
------------------------------------------------------------------------
 total:
 * wall-time:     0 d,  0 h,  0 min,  0.068 sec
 *  cpu-time:     0 d,  0 h,  0 min,  0.380 sec
 * ratio c/w:     5.580 speedup
 SCF:
 * wall-time:     0 d,  0 h,  0 min,  0.014 sec
 *  cpu-time:     0 d,  0 h,  0 min,  0.098 sec
 * ratio c/w:     6.920 speedup


-------------------------   --------------------
FINAL SINGLE POINT ENERGY       -32.990937907930
-------------------------   --------------------


-------------
DIPOLE MOMENT
-------------
                                X             Y             Z
Total Dipole Moment    :      1.19100       0.35400       0.80500
                        -----------------------------------------
Magnitude (a.u.)       :      1.48048
Magnitude (Debye)      :      3.76308


------------------
CARTESIAN GRADIENT
------------------

   1   C   :   -0.000355046    0.000515769   -0.000093406
   2   C   :    0.000106972    0.000091690   -0.001460045
   3   O   :   -0.000175716   -0.000400518    0.000930426
   4   N   :   -0.001477337    0.000670680    0.002148935
   5   C   :    0.001375776    0.000162983   -0.001707923
   6   C   :   -0.000801402    0.001243307   -0.000320770
   7   C   :   -0.000002092   -0.000690001    0.000869422
   8   O   :    0.000349090    0.001330994   -0.000846631
   9   N   :    0.000049844   -0.000434524   -0.000615058
  10   C   :   -0.000790399   -0.000930447    0.001571061
  11   H   :    0.000092533   -0.000366436   -0.000140074
  12   H   :    0.000029167    0.000370725    0.000188231
  13   H   :    0.000218736   -0.000589107    0.000092221
  14   H   :    0.000515492   -0.000280426   -0.000622674
  15   H   :   -0.000503347   -0.000592709    0.000095704
  16   H   :    0.000371473   -0.000087718    0.000283852
  17   H   :    0.000295775   -0.000240255   -0.000119477
  18   H   :   -0.000125814   -0.000319865    0.000071170
  19   H   :    0.000556547   -0.000038364    0.000609407
  20   H   :    0.000165364   -0.000061648   -0.000364872
  21   H   :   -0.000069121    0.000767837   -0.000164931
  22   H   :    0.000173503   -0.000121968   -0.000404568

Difference to translation invariance:
           :   -0.0000000000   -0.0000000000   -0.0000000000

Difference to rotation invariance:
           :    0.0000676013    0.0001213526   -0.0000636287

Norm of the Cartesian gradient     ...    0.0055343374
RMS gradient                       ...    0.0006812298
MAX gradient                       ...    0.0021489352
------------------------------------------------------------------------------
                         ORCA GEOMETRY RELAXATION STEP
------------------------------------------------------------------------------

Reading the OPT-File                    .... done
Getting information on internals        .... done
Copying old internal coords+grads       .... done
Making the new internal coordinates     .... (2022 redundants) done
Validating the new internal coordinates .... (2022 redundants) done
Calculating the B-matrix                .... done
Calculating the G,G- and P matrices     .... done
Transforming gradient to internals      .... done
Projecting the internal gradient        .... done
Number of atoms                         ....  22
Number of internal coordinates          ....  92
Current Energy                          ....   -32.990937908 Eh
Current gradient norm                   ....     0.005534337 Eh/bohr
Maximum allowed component of the step   ....  0.300
Current trust radius                    ....  0.700
Updating the Hessian (BFGS)             .... done
Forming the augmented Hessian           .... done
Diagonalizing the augmented Hessian     .... done
Last element of RFO vector              ....  0.962646811
Lowest eigenvalues of augmented Hessian:
 -0.000205152  0.001200459  0.006748195  0.011414151  0.011755204
Length of the computed step             ....  0.281266455
The final length of the internal step   ....  0.281266455
Converting the step to Cartesian space:
 Initial RMS(Int)=    0.0293240550
Transforming coordinates:
 Iter   0:  RMS(Cart)=    0.0437407119 RMS(Int)=    0.0293070032
 Iter   5:  RMS(Cart)=    0.0000000602 RMS(Int)=    0.0000000482
done
Storing new coordinates                 .... done
The predicted energy change is          ....    -0.000110691
Previously predicted energy change      ....    -0.000134377
Actually observed energy change         ....    -0.000179718
Ratio of predicted to observed change   ....     1.337415862
New trust radius                        ....     0.700000000

                                .--------------------.
          ----------------------|Geometry convergence|-------------------------
          Item                value                   Tolerance       Converged
          ---------------------------------------------------------------------
          Energy change      -0.0001797175            0.0000050000      NO
          RMS gradient        0.0003892943            0.0001000000      NO
          MAX gradient        0.0013962162            0.0003000000      NO
          RMS step            0.0293240550            0.0020000000      NO
          MAX step            0.1136819581            0.0040000000      NO
          -------------------------------------------------------------------------
          ........................................................
          Max(Bonds)      0.0137      Max(Angles)    0.47
          Max(Dihed)        6.51      Max(Improp)    0.00
          ---------------------------------------------------------------------

The optimization has not yet converged - more geometry cycles are needed


    ---------------------------------------------------------------------------
                         Redundant Internal Coordinates
                            (Angstroem and degrees)

        Definition                    Value    dE/dq     Step     New-Value
    ----------------------------------------------------------------------------
     1. B(C   1,C   0)                1.5049 -0.000006  0.0007    1.5057   
     2. B(O   2,C   1)                1.2319 -0.001045 -0.0007    1.2312   
     3. B(N   3,C   1)                1.3400 -0.000078  0.0002    1.3401   
     4. B(C   4,N   3)                1.4559  0.000433 -0.0015    1.4544   
     5. B(C   5,C   4)                1.5184 -0.000631  0.0005    1.5189   
     6. B(C   6,C   4)                1.5434 -0.000131 -0.0009    1.5425   
     7. B(O   7,C   6)                1.2257 -0.001396  0.0003    1.2260   
     8. B(N   8,C   6)                1.3333 -0.000989  0.0005    1.3337   
     9. B(C   9,N   8)                1.4461  0.000331 -0.0001    1.4460   
    10. B(H  10,C   0)                1.0876 -0.000319 -0.0004    1.0872   
    11. B(H  11,C   0)                1.0847 -0.000119  0.0003    1.0850   
    12. B(H  12,C   0)                1.0857 -0.000309 -0.0002    1.0855   
    13. B(H  13,N   3)                1.0082 -0.000325  0.0001    1.0083   
    14. B(H  14,C   4)                1.0959 -0.000374 -0.0001    1.0958   
    15. B(H  15,C   5)                1.0855 -0.000303 -0.0000    1.0855   
    16. B(H  16,C   5)                1.0872 -0.000177 -0.0001    1.0871   
    17. B(H  17,C   5)                1.0862 -0.000057  0.0002    1.0864   
    18. B(H  18,O   2)                1.9734 -0.000369  0.0137    1.9871   
    19. B(H  18,N   8)                1.0166 -0.000099 -0.0002    1.0164   
    20. B(H  19,C   9)                1.0885 -0.000194  0.0009    1.0894   
    21. B(H  20,C   9)                1.0877 -0.000498 -0.0004    1.0873   
    22. B(H  21,C   9)                1.0909  0.000321 -0.0009    1.0900   
    23. A(H  11,C   0,H  12)          109.94 -0.000437   -0.22    109.72   
    24. A(C   1,C   0,H  11)          111.73  0.000477   -0.18    111.55   
    25. A(C   1,C   0,H  12)          109.13 -0.000038    0.07    109.20   
    26. A(C   1,C   0,H  10)          108.55 -0.000185    0.16    108.70   
    27. A(H  10,C   0,H  12)          108.41  0.000404    0.27    108.69   
    28. A(H  10,C   0,H  11)          109.02 -0.000216   -0.09    108.93   
    29. A(O   2,C   1,N   3)          121.87  0.000131    0.02    121.88   
    30. A(C   0,C   1,N   3)          115.44 -0.000006   -0.26    115.18   
    31. A(C   0,C   1,O   2)          122.67 -0.000125    0.25    122.92   
    32. A(C   4,N   3,H  13)          116.68 -0.000001    0.16    116.84   
    33. A(C   1,N   3,C   4)          123.02 -0.000318   -0.04    122.98   
    34. A(C   1,N   3,H  13)          120.23  0.000294   -0.28    119.95   
    35. A(C   5,C   4,C   6)          111.07  0.000075   -0.02    111.05   
    36. A(N   3,C   4,C   5)          110.08 -0.000058   -0.05    110.03   
    37. A(N   3,C   4,C   6)          109.27 -0.000452    0.14    109.42   
    38. A(C   6,C   4,H  14)          107.72  0.000111    0.15    107.87   
    39. A(C   5,C   4,H  14)          110.95 -0.000315   -0.17    110.79   
    40. A(N   3,C   4,H  14)          107.64  0.000656   -0.06    107.59   
    41. A(H  16,C   5,H  17)          109.79 -0.000384   -0.18    109.61   
    42. A(C   4,C   5,H  17)          110.63  0.000308    0.05    110.68   
    43. A(H  15,C   5,H  16)          107.79 -0.000250    0.03    107.82   
    44. A(C   4,C   5,H  16)          109.97  0.000352    0.16    110.13   
    45. A(C   4,C   5,H  15)          109.69  0.000350    0.10    109.80   
    46. A(H  15,C   5,H  17)          108.90 -0.000397   -0.16    108.74   
    47. A(O   7,C   6,N   8)          124.08 -0.000929   -0.05    124.03   
    48. A(C   4,C   6,N   8)          113.13 -0.000021    0.04    113.17   
    49. A(C   4,C   6,O   7)          122.79  0.000949    0.01    122.80   
    50. A(C   9,N   8,H  18)          118.24  0.000325    0.09    118.34   
    51. A(C   6,N   8,H  18)          118.11 -0.000345   -0.47    117.64   
    52. A(C   6,N   8,C   9)          123.24  0.000009    0.04    123.27   
    53. A(N   8,C   9,H  19)          109.99 -0.000269    0.25    110.23   
    54. A(H  20,C   9,H  21)          109.38 -0.000019    0.32    109.70   
    55. A(H  19,C   9,H  21)          109.20  0.000089   -0.07    109.12   
    56. A(N   8,C   9,H  21)          109.92 -0.000642   -0.05    109.87   
    57. A(H  19,C   9,H  20)          109.86 -0.000183   -0.22    109.63   
    58. A(N   8,C   9,H  20)          108.48  0.001026   -0.21    108.26   
    59. D(O   2,C   1,C   0,H  10)     90.28 -0.000032    3.82     94.10   
    60. D(O   2,C   1,C   0,H  11)   -149.48 -0.000126    3.70   -145.78   
    61. D(N   3,C   1,C   0,H  11)     31.89 -0.000166    3.42     35.31   
    62. D(N   3,C   1,C   0,H  10)    -88.35 -0.000072    3.54    -84.81   
    63. D(O   2,C   1,C   0,H  12)    -27.69 -0.000390    3.36    -24.33   
    64. D(H  13,N   3,C   1,C   0)      0.34 -0.000370    1.65      1.99   
    65. D(C   4,N   3,C   1,C   0)   -176.61  0.000198   -0.50   -177.11   
    66. D(H  13,N   3,C   1,O   2)   -178.31 -0.000406    1.37   -176.94   
    67. D(C   4,N   3,C   1,O   2)      4.74  0.000162   -0.78      3.97   
    68. D(H  14,C   4,N   3,C   1)     32.94 -0.000147    0.47     33.41   
    69. D(C   6,C   4,N   3,H  13)     99.17  0.000141   -1.82     97.35   
    70. D(C   6,C   4,N   3,C   1)    -83.77 -0.000399    0.25    -83.52   
    71. D(C   5,C   4,N   3,H  13)    -23.06  0.000381   -1.87    -24.92   
    72. D(C   5,C   4,N   3,C   1)    154.00 -0.000159    0.21    154.20   
    73. D(H  15,C   5,C   4,N   3)   -174.82 -0.000315    1.01   -173.81   
    74. D(H  16,C   5,C   4,H  14)   -174.15  0.000146    0.61   -173.54   
    75. D(H  16,C   5,C   4,C   6)    -54.36  0.000126    0.68    -53.69   
    76. D(H  16,C   5,C   4,N   3)     66.80 -0.000434    0.82     67.61   
    77. D(H  15,C   5,C   4,H  14)    -55.77  0.000265    0.80    -54.96   
    78. D(H  15,C   5,C   4,C   6)     64.02  0.000245    0.87     64.89   
    79. D(N   8,C   6,C   4,C   5)   -165.98 -0.000012    1.04   -164.93   
    80. D(N   8,C   6,C   4,N   3)     72.39  0.000315    1.01     73.40   
    81. D(O   7,C   6,C   4,H  14)    135.92 -0.000297    0.77    136.69   
    82. D(O   7,C   6,C   4,C   5)     14.22 -0.000027    0.88     15.11   
    83. D(O   7,C   6,C   4,N   3)   -107.41  0.000300    0.85   -106.56   
    84. D(H  18,N   8,C   6,O   7)    174.83  0.000011   -0.60    174.23   
    85. D(H  18,N   8,C   6,C   4)     -4.97 -0.000008   -0.76     -5.73   
    86. D(C   9,N   8,C   6,O   7)      2.29  0.000086    0.93      3.22   
    87. D(C   9,N   8,C   6,C   4)   -177.50  0.000067    0.77   -176.74   
    88. D(H  19,C   9,N   8,H  18)    -46.97  0.000502   -4.90    -51.87   
    89. D(H  19,C   9,N   8,C   6)    125.56  0.000380   -6.51    119.04   
    90. D(H  21,C   9,N   8,C   6)   -114.18 -0.000086   -6.49   -120.67   
    91. D(H  20,C   9,N   8,H  18)   -167.14  0.000256   -4.65   -171.79   
    92. D(H  20,C   9,N   8,C   6)      5.38  0.000134   -6.26     -0.88   
    ----------------------------------------------------------------------------

Geometry step timings:
Preparation and reading OPT file:      0.001 s ( 3.092 %)
Internal coordinates            :      0.000 s ( 0.192 %)
B/P matrices and projection     :      0.002 s ( 7.313 %)
Hessian update/contruction      :      0.017 s (50.779 %)
Making the step                 :      0.002 s ( 6.556 %)
Converting the step to Cartesian:      0.000 s ( 0.674 %)
Storing new data                :      0.005 s (15.102 %)
Checking convergence            :      0.000 s ( 0.257 %)
Final printing                  :      0.005 s (16.030 %)
Total time                      :      0.034 s

Time for energy+gradient        :      0.157 s
Time for complete geometry iter :      0.221 s

         *************************************************************
         *                GEOMETRY OPTIMIZATION CYCLE  10            *
         *************************************************************
---------------------------------
CARTESIAN COORDINATES (ANGSTROEM)
---------------------------------
  C     2.237338    1.751766    1.170570
  C     1.437253    1.038716    0.113010
  O     1.146648    1.553532   -0.966976
  N     1.038487   -0.198939    0.437295
  C     0.309725   -1.062928   -0.477968
  C     0.548958   -2.519647   -0.120350
  C    -1.192712   -0.718145   -0.421953
  O    -2.019533   -1.438863    0.125729
  N    -1.489625    0.433765   -1.025138
  C    -2.819614    1.000914   -1.043901
  H     1.550205    2.225121    1.867610
  H     2.876134    1.065878    1.717159
  H     2.842532    2.521473    0.701964
  H     1.253079   -0.575892    1.347481
  H     0.666547   -0.847581   -1.491408
  H     0.094106   -3.161328   -0.868516
  H     0.090750   -2.749681    0.838226
  H     1.613005   -2.734270   -0.076655
  H    -0.718420    0.998891   -1.369885
  H    -2.820518    1.975428   -0.557055
  H    -3.485471    0.325959   -0.511622
  H    -3.158870    1.115831   -2.073355

----------------------------
CARTESIAN COORDINATES (A.U.)
----------------------------
  NO LB    ZA    FRAG    MASS        X           Y           Z
   0 C   6.0000    0    12.011    4.227956    3.310359    2.212056
   1 C   6.0000    0    12.011    2.716014    1.962889    0.213558
   2 O   8.0000    0    15.999    2.166851    2.935751   -1.827319
   3 N   7.0000    0    14.007    1.962456   -0.375941    0.826368
   4 C   6.0000    0    12.011    0.585296   -2.008642   -0.903228
   5 C   6.0000    0    12.011    1.037381   -4.761442   -0.227429
   6 C   6.0000    0    12.011   -2.253899   -1.357097   -0.797376
   7 O   8.0000    0    15.999   -3.816363   -2.719057    0.237594
   8 N   7.0000    0    14.007   -2.814984    0.819696   -1.937230
   9 C   6.0000    0    12.011   -5.328299    1.891454   -1.972688
  10 H   1.0000    0     1.008    2.929464    4.204869    3.529271
  11 H   1.0000    0     1.008    5.435106    2.014217    3.244960
  12 H   1.0000    0     1.008    5.371607    4.764893    1.326520
  13 H   1.0000    0     1.008    2.367975   -1.088278    2.546369
  14 H   1.0000    0     1.008    1.259592   -1.601696   -2.818354
  15 H   1.0000    0     1.008    0.177834   -5.974044   -1.641257
  16 H   1.0000    0     1.008    0.171493   -5.196144    1.584018
  17 H   1.0000    0     1.008    3.048137   -5.167021   -0.144856
  18 H   1.0000    0     1.008   -1.357617    1.887630   -2.588708
  19 H   1.0000    0     1.008   -5.330007    3.733017   -1.052681
  20 H   1.0000    0     1.008   -6.586585    0.615973   -0.966826
  21 H   1.0000    0     1.008   -5.969400    2.108615   -3.918074

      -----------------------------------------------------------      
     |                   =====================                   |     
     |                           x T B                           |     
     |                   =====================                   |     
     |                         S. Grimme                         |     
     |          Mulliken Center for Theoretical Chemistry        |     
     |                    University of Bonn                     |     
      -----------------------------------------------------------      

   * xtb version 6.7.1 (edcfbbe) compiled by 'albert@albert-system' on 2024-07-22

   xtb is free software: you can redistribute it and/or modify it under
   the terms of the GNU Lesser General Public License as published by
   the Free Software Foundation, either version 3 of the License, or
   (at your option) any later version.
   
   xtb is distributed in the hope that it will be useful,
   but WITHOUT ANY WARRANTY; without even the implied warranty of
   MERCHANTABILITY or FITNESS FOR A PARTICULAR PURPOSE.  See the
   GNU Lesser General Public License for more details.
   
   Cite this work as:
   * C. Bannwarth, E. Caldeweyher, S. Ehlert, A. Hansen, P. Pracht,
     J. Seibert, S. Spicher, S. Grimme, WIREs Comput. Mol. Sci., 2020, 11,
     e01493. DOI: 10.1002/wcms.1493
   
   for GFN2-xTB:
   * C. Bannwarth, S. Ehlert and S. Grimme., J. Chem. Theory Comput., 2019,
     15, 1652-1671. DOI: 10.1021/acs.jctc.8b01176
   for GFN1-xTB:
   * S. Grimme, C. Bannwarth, P. Shushkov, J. Chem. Theory Comput., 2017,
     13, 1989-2009. DOI: 10.1021/acs.jctc.7b00118
   for GFN0-xTB:
   * P. Pracht, E. Caldeweyher, S. Ehlert, S. Grimme, ChemRxiv, 2019, preprint.
     DOI: 10.26434/chemrxiv.8326202.v1
   for GFN-FF:
   * S. Spicher and S. Grimme, Angew. Chem. Int. Ed., 2020, 59, 15665-15673.
     DOI: 10.1002/anie.202004239
   
   for ALPB and GBSA implicit solvation:
   * S. Ehlert, M. Stahn, S. Spicher, S. Grimme, J. Chem. Theory Comput.,
     2021, 17, 4250-4261. DOI: 10.1021/acs.jctc.1c00471
   
   for ddCOSMO and CPCM-X implicit solvation:
   * M. Stahn, S. Ehlert, S. Grimme, J. Phys. Chem. A,
     2023, XX, XXXX-XXXX. DOI: 10.1021/acs.jpca.3c04382
   
   for DFT-D4:
   * E. Caldeweyher, C. Bannwarth and S. Grimme, J. Chem. Phys., 2017,
     147, 034112. DOI: 10.1063/1.4993215
   * E. Caldeweyher, S. Ehlert, A. Hansen, H. Neugebauer, S. Spicher,
     C. Bannwarth and S. Grimme, J. Chem. Phys., 2019, 150, 154122.
     DOI: 10.1063/1.5090222
   * E. Caldeweyher, J.-M. Mewes, S. Ehlert and S. Grimme, Phys. Chem. Chem. Phys.
     2020, 22, 8499-8512. DOI: 10.1039/D0CP00502A
   
   for sTDA-xTB:
   * S. Grimme and C. Bannwarth, J. Chem. Phys., 2016, 145, 054103.
     DOI: 10.1063/1.4959605
   
   in the mass-spec context:
   * V. Asgeirsson, C. Bauer and S. Grimme, Chem. Sci., 2017, 8, 4879.
     DOI: 10.1039/c7sc00601b
   * J. Koopman and S. Grimme, ACS Omega 2019, 4, 12, 15120-15133.
     DOI: 10.1021/acsomega.9b02011
   
   for metadynamics refer to:
   * S. Grimme, J. Chem. Theory Comput., 2019, 155, 2847-2862
     DOI: 10.1021/acs.jctc.9b00143
   
   for SPH calculations refer to:
   * S. Spicher and S. Grimme, J. Chem. Theory Comput., 2021, 17, 1701-1714
     DOI: 10.1021/acs.jctc.0c01306
   
   for ONIOM refer to:
   * C. Plett, A. Katbashev, S. Ehlert, S. Grimme, M. Bursch,
     Phys. Chem. Chem. Phys., 2023, 25, 17860-17868. DOI: 10.1039/D3CP02178E
   
   for DIPRO refer to:
   * J. Kohn, N. Gildemeister, S. Grimme, D. Fazzi, A. Hansen,
     J. Chem. Phys., 2023, just accepted.
   
   for PTB refer to:
   * S. Grimme, M. Mueller, A. Hansen, J. Chem. Phys., 2023, 158, 124111.
     DOI: 10.1063/5.0137838
   
   with help from (in alphabetical order)
   P. Atkinson, C. Bannwarth, F. Bohle, G. Brandenburg, E. Caldeweyher
   M. Checinski, S. Dohm, S. Ehlert, S. Ehrlich, I. Gerasimov, C. Hölzer
   A. Katbashev, J. Kohn, J. Koopman, C. Lavigne, S. Lehtola, F. März, M. Müller,
   F. Musil, H. Neugebauer, J. Pisarek, C. Plett, P. Pracht, F. Pultar,
   J. Seibert, P. Shushkov, S. Spicher, M. Stahn, M. Steiner, T. Strunk,
   J. Stückrath, T. Rose, and J. Unsleber
   
 * started run on 2026/09/28 at 23:19:03.479     
   ID    Z sym.   atoms
    1    6 C      1, 2, 5-7, 10
    2    8 O      3, 8
    3    7 N      4, 9
    4    1 H      11-22

           -------------------------------------------------
          |                Calculation Setup                |
           -------------------------------------------------

          program call               : /app1/ebapps/arches/flat-avx2/software/ORCA/6.1.0-gompi-2023b-avx2/bin/otool_xtb o01-xtb-opt-freq_XTB.xyz --grad -c 0 -u 0 -P 8 --namespace o01-xtb-opt-freq --input o01-xtb-opt-freq_XTB.input.tmp --alpb WATER --acc 0.200000
          hostname                   : IN-006
          calculation namespace      : o01-xtb-opt-freq
          coordinate file            : o01-xtb-opt-freq_XTB.xyz
          omp threads                :                     8


           -------------------------------------------------
          |                 G F N 2 - x T B                 |
           -------------------------------------------------

        Reference                      10.1021/acs.jctc.8b01176
      * Hamiltonian:
        H0-scaling (s, p, d)           1.850000    2.230000    2.230000
        zeta-weighting                 0.500000
      * Dispersion:
        s8                             2.700000
        a1                             0.520000
        a2                             5.000000
        s9                             5.000000
      * Repulsion:
        kExp                           1.500000    1.000000
        rExp                           1.000000
      * Coulomb:
        alpha                          2.000000
        third order                    shell-resolved
        anisotropic                    true
        a3                             3.000000
        a5                             4.000000
        cn-shift                       1.200000
        cn-exp                         4.000000
        max-rad                        5.000000

      * Solvation model:               ALPB
        Solvent                        WATER
        Parameter file                 internal GFN2-xTB/ALPB
        Dielectric constant                8.0200E+01
        Reference state                gsolv [1 M gas/solution]
        Free energy shift                  1.0808E-03 Eh       6.7819E-01 kcal/mol
        Temperature                        2.9815E+02 K
        Density                            1.0000E+00 kg/L
        Solvent mass                       1.8000E+01 g/mol
        Interaction kernel             P16
        Born radius scaling (c1)           1.4744E+00
        Born radii integrator          GBOBC
        Born offset                        0.0000E+00 a0       0.0000E+00 AA
        H-bond correction              true
        Ion screening                  false
        Surface tension                    1.0000E-05 Eh       1.5569E+01 dyn/cm
        Grid points                               230 per atom
q/qsh data taken from xtbrestart
CAMM data taken from xtbrestart

          ...................................................
          :                      SETUP                      :
          :.................................................:
          :  # basis functions                  52          :
          :  # atomic orbitals                  52          :
          :  # shells                           32          :
          :  # electrons                        58          :
          :  max. iterations                   250          :
          :  Hamiltonian                  GFN2-xTB          :
          :  restarted?                       true          :
          :  GBSA solvation                   true          :
          :  PC potential                    false          :
          :  electronic temp.          300.0000000     K    :
          :  accuracy                    0.2000000          :
          :  -> integral cutoff          0.3198970E+02      :
          :  -> integral neglect         0.2000000E-08      :
          :  -> SCF convergence          0.2000000E-06 Eh   :
          :  -> wf. convergence          0.2000000E-04 e    :
          :  Broyden damping             0.4000000          :
          :  net charge                          0          :
          :  unpaired electrons                  0          :
          ...................................................

 iter      E             dE          RMSdq      gap      omega  full diag
   1    -33.3799918 -0.333800E+02  0.937E-02    4.62       0.0  T
   2    -33.3799929 -0.109511E-05  0.556E-02    4.62       1.0  T
   3    -33.3799932 -0.314403E-06  0.381E-03    4.62       5.6  T
   4    -33.3799932 -0.439990E-07  0.203E-03    4.62      10.5  T
   5    -33.3799932 -0.612643E-08  0.651E-04    4.62      32.8  T
   6    -33.3799932 -0.176645E-08  0.195E-04    4.62     109.1  T
   7    -33.3799932 -0.510596E-10  0.814E-05    4.62     262.0  T

   *** convergence criteria satisfied after 7 iterations ***

         #    Occupation            Energy/Eh            Energy/eV
      -------------------------------------------------------------
         1        2.0000           -0.7093699             -19.3029
       ...           ...                  ...                  ...
        23        2.0000           -0.4656272             -12.6704
        24        2.0000           -0.4621591             -12.5760
        25        2.0000           -0.4553756             -12.3914
        26        2.0000           -0.4326546             -11.7731
        27        2.0000           -0.4084829             -11.1154
        28        2.0000           -0.4022208             -10.9450
        29        2.0000           -0.3908613             -10.6359 (HOMO)
        30                         -0.2212422              -6.0203 (LUMO)
        31                         -0.2128684              -5.7924
        32                          0.0048334               0.1315
        33                          0.0073589               0.2002
        34                          0.0853537               2.3226
       ...                                ...                  ...
        52                          0.6090627              16.5734
      -------------------------------------------------------------
                  HL-Gap            0.1696191 Eh            4.6156 eV
             Fermi-level           -0.3060518 Eh           -8.3281 eV

 SCC (total)                   0 d,  0 h,  0 min,  0.010 sec
 SCC setup                      ...        0 min,  0.000 sec (  3.780%)
 Dispersion                     ...        0 min,  0.000 sec (  1.549%)
 classical contributions        ...        0 min,  0.000 sec (  0.203%)
 integral evaluation            ...        0 min,  0.001 sec (  7.440%)
 iterations                     ...        0 min,  0.007 sec ( 68.895%)
 molecular gradient             ...        0 min,  0.002 sec ( 16.789%)
 printout                       ...        0 min,  0.000 sec (  1.114%)

         :::::::::::::::::::::::::::::::::::::::::::::::::::::
         ::                     SUMMARY                     ::
         :::::::::::::::::::::::::::::::::::::::::::::::::::::
         :: total energy             -32.991087587071 Eh    ::
         :: total w/o Gsasa/hb       -32.988727332387 Eh    ::
         :: gradient norm              0.005864116792 Eh/a0 ::
         :: HOMO-LUMO gap              4.615571901886 eV    ::
         ::.................................................::
         :: SCC energy               -33.379889807459 Eh    ::
         :: -> isotropic ES            0.104231417181 Eh    ::
         :: -> anisotropic ES          0.001271050549 Eh    ::
         :: -> anisotropic XC          0.010629642548 Eh    ::
         :: -> dispersion             -0.015450928165 Eh    ::
         :: -> Gsolv                  -0.020260075138 Eh    ::
         ::    -> Gelec               -0.017899820454 Eh    ::
         ::    -> Gsasa                0.001564189869 Eh    ::
         ::    -> Ghb                 -0.005005204251 Eh    ::
         ::    -> Gshift               0.001080759698 Eh    ::
         :: repulsion energy           0.388802220388 Eh    ::
         :: add. restraining           0.000000000000 Eh    ::
         :: total charge               0.000000000000 e     ::
         :::::::::::::::::::::::::::::::::::::::::::::::::::::


Property printout bound to 'properties.out'

           -------------------------------------------------
          | TOTAL ENERGY              -32.991087587071 Eh   |
          | GRADIENT NORM               0.005864116792 Eh/α |
          | HOMO-LUMO GAP               4.615571901886 eV   |
           -------------------------------------------------

------------------------------------------------------------------------
 * finished run on 2026/09/28 at 23:19:03.542     
------------------------------------------------------------------------
 total:
 * wall-time:     0 d,  0 h,  0 min,  0.062 sec
 *  cpu-time:     0 d,  0 h,  0 min,  0.406 sec
 * ratio c/w:     6.532 speedup
 SCF:
 * wall-time:     0 d,  0 h,  0 min,  0.010 sec
 *  cpu-time:     0 d,  0 h,  0 min,  0.080 sec
 * ratio c/w:     7.896 speedup


-------------------------   --------------------
FINAL SINGLE POINT ENERGY       -32.991087587070
-------------------------   --------------------


-------------
DIPOLE MOMENT
-------------
                                X             Y             Z
Total Dipole Moment    :      1.16700       0.34800       0.79600
                        -----------------------------------------
Magnitude (a.u.)       :      1.45486
Magnitude (Debye)      :      3.69795


------------------
CARTESIAN GRADIENT
------------------

   1   C   :   -0.000625668    0.000622441    0.000230309
   2   C   :   -0.000129340    0.000284697   -0.001931336
   3   O   :   -0.000138616   -0.000698197    0.001187297
   4   N   :   -0.001174827    0.000028680    0.001400425
   5   C   :    0.000999079    0.001326587   -0.001326247
   6   C   :   -0.001161310    0.001679397   -0.000336796
   7   C   :    0.000964726   -0.000582141    0.000771046
   8   O   :    0.000080996    0.001257429   -0.000831878
   9   N   :   -0.000699312   -0.000363846   -0.000705382
  10   C   :   -0.001087582   -0.001130271    0.001190708
  11   H   :    0.000198801   -0.000524103   -0.000128058
  12   H   :    0.000149488    0.000494678    0.000205630
  13   H   :    0.000431379   -0.000783821    0.000115167
  14   H   :    0.000424697    0.000078276   -0.000404879
  15   H   :   -0.000381416   -0.000750319    0.000130740
  16   H   :    0.000588482   -0.000207324    0.000298916
  17   H   :    0.000527860   -0.000481634   -0.000156332
  18   H   :   -0.000142415   -0.000577588    0.000159373
  19   H   :    0.000842955   -0.000610419    0.000754164
  20   H   :   -0.000024570   -0.000078855   -0.000263327
  21   H   :    0.000173189    0.000836695   -0.000085240
  22   H   :    0.000183404    0.000179639   -0.000274300

Difference to translation invariance:
           :   -0.0000000000   -0.0000000000   -0.0000000000

Difference to rotation invariance:
           :    0.0000603985    0.0000873199    0.0001115947

Norm of the Cartesian gradient     ...    0.0058641168
RMS gradient                       ...    0.0007218229
MAX gradient                       ...    0.0019313364
------------------------------------------------------------------------------
                         ORCA GEOMETRY RELAXATION STEP
------------------------------------------------------------------------------

Reading the OPT-File                    .... done
Getting information on internals        .... done
Copying old internal coords+grads       .... done
Making the new internal coordinates     .... (2022 redundants) done
Validating the new internal coordinates .... (2022 redundants) done
Calculating the B-matrix                .... done
Calculating the G,G- and P matrices     .... done
Transforming gradient to internals      .... done
Projecting the internal gradient        .... done
Number of atoms                         ....  22
Number of internal coordinates          ....  92
Current Energy                          ....   -32.991087587 Eh
Current gradient norm                   ....     0.005864117 Eh/bohr
Maximum allowed component of the step   ....  0.300
Current trust radius                    ....  0.700
Updating the Hessian (BFGS)             .... done
Forming the augmented Hessian           .... done
Diagonalizing the augmented Hessian     .... done
Last element of RFO vector              ....  0.970659324
Lowest eigenvalues of augmented Hessian:
 -0.000167896  0.001045376  0.005029829  0.011240250  0.011824314
Length of the computed step             ....  0.247727378
The final length of the internal step   ....  0.247727378
Converting the step to Cartesian space:
 Initial RMS(Int)=    0.0258273646
Transforming coordinates:
 Iter   0:  RMS(Cart)=    0.0387205391 RMS(Int)=    0.0258101410
 Iter   5:  RMS(Cart)=    0.0000000182 RMS(Int)=    0.0000000146
done
Storing new coordinates                 .... done
The predicted energy change is          ....    -0.000089100
Previously predicted energy change      ....    -0.000110691
Actually observed energy change         ....    -0.000149679
Ratio of predicted to observed change   ....     1.352228589
New trust radius                        ....     0.700000000

                                .--------------------.
          ----------------------|Geometry convergence|-------------------------
          Item                value                   Tolerance       Converged
          ---------------------------------------------------------------------
          Energy change      -0.0001496791            0.0000050000      NO
          RMS gradient        0.0004506246            0.0001000000      NO
          MAX gradient        0.0013645376            0.0003000000      NO
          RMS step            0.0258273646            0.0020000000      NO
          MAX step            0.0862816805            0.0040000000      NO
          -------------------------------------------------------------------------
          ........................................................
          Max(Bonds)      0.0140      Max(Angles)    0.32
          Max(Dihed)        4.94      Max(Improp)    0.00
          ---------------------------------------------------------------------

The optimization has not yet converged - more geometry cycles are needed


    ---------------------------------------------------------------------------
                         Redundant Internal Coordinates
                            (Angstroem and degrees)

        Definition                    Value    dE/dq     Step     New-Value
    ----------------------------------------------------------------------------
     1. B(C   1,C   0)                1.5057  0.000289  0.0001    1.5058   
     2. B(O   2,C   1)                1.2312 -0.001365  0.0001    1.2313   
     3. B(N   3,C   1)                1.3401 -0.000407  0.0003    1.3404   
     4. B(C   4,N   3)                1.4544 -0.000133 -0.0010    1.4534   
     5. B(C   5,C   4)                1.5189 -0.000432  0.0009    1.5198   
     6. B(C   6,C   4)                1.5425 -0.000327 -0.0003    1.5422   
     7. B(O   7,C   6)                1.2260 -0.001166  0.0006    1.2266   
     8. B(N   8,C   6)                1.3337 -0.001130  0.0006    1.3343   
     9. B(C   9,N   8)                1.4460  0.000610 -0.0006    1.4454   
    10. B(H  10,C   0)                1.0872 -0.000436  0.0002    1.0874   
    11. B(H  11,C   0)                1.0850 -0.000121  0.0002    1.0852   
    12. B(H  12,C   0)                1.0855 -0.000365  0.0002    1.0857   
    13. B(H  13,N   3)                1.0083 -0.000304  0.0004    1.0086   
    14. B(H  14,C   4)                1.0958 -0.000393  0.0005    1.0963   
    15. B(H  15,C   5)                1.0855 -0.000330  0.0002    1.0858   
    16. B(H  16,C   5)                1.0871 -0.000256  0.0001    1.0872   
    17. B(H  17,C   5)                1.0864 -0.000020 -0.0000    1.0863   
    18. B(H  18,O   2)                1.9871 -0.000224  0.0140    2.0010   
    19. B(H  18,N   8)                1.0164 -0.000134 -0.0004    1.0159   
    20. B(H  19,C   9)                1.0894 -0.000188  0.0008    1.0902   
    21. B(H  20,C   9)                1.0873 -0.000669  0.0006    1.0879   
    22. B(H  21,C   9)                1.0900  0.000223 -0.0010    1.0890   
    23. A(H  11,C   0,H  12)          109.72 -0.000713    0.03    109.76   
    24. A(C   1,C   0,H  11)          111.55  0.000580   -0.24    111.31   
    25. A(C   1,C   0,H  12)          109.20  0.000009    0.04    109.24   
    26. A(C   1,C   0,H  10)          108.70 -0.000101    0.13    108.83   
    27. A(H  10,C   0,H  12)          108.69  0.000555    0.02    108.70   
    28. A(H  10,C   0,H  11)          108.93 -0.000318    0.02    108.94   
    29. A(O   2,C   1,N   3)          121.88  0.000008    0.03    121.91   
    30. A(C   0,C   1,N   3)          115.18 -0.000394   -0.16    115.03   
    31. A(C   0,C   1,O   2)          122.92  0.000388    0.14    123.06   
    32. A(C   4,N   3,H  13)          116.91  0.000305    0.05    116.96   
    33. A(C   1,N   3,C   4)          123.05 -0.000304    0.11    123.17   
    34. A(C   1,N   3,H  13)          120.03 -0.000008   -0.25    119.78   
    35. A(C   5,C   4,C   6)          111.05 -0.000090    0.04    111.09   
    36. A(N   3,C   4,C   5)          110.04 -0.000192    0.00    110.04   
    37. A(N   3,C   4,C   6)          109.42 -0.000063    0.25    109.67   
    38. A(C   6,C   4,H  14)          107.87  0.000184    0.05    107.92   
    39. A(C   5,C   4,H  14)          110.79 -0.000401   -0.03    110.76   
    40. A(N   3,C   4,H  14)          107.58  0.000593   -0.31    107.27   
    41. A(H  16,C   5,H  17)          109.61 -0.000717    0.05    109.65   
    42. A(C   4,C   5,H  17)          110.68  0.000549   -0.06    110.62   
    43. A(H  15,C   5,H  16)          107.82 -0.000410    0.05    107.87   
    44. A(C   4,C   5,H  16)          110.13  0.000721   -0.04    110.09   
    45. A(C   4,C   5,H  15)          109.79  0.000483   -0.05    109.75   
    46. A(H  15,C   5,H  17)          108.74 -0.000669    0.06    108.81   
    47. A(O   7,C   6,N   8)          124.03 -0.001180    0.07    124.10   
    48. A(C   4,C   6,N   8)          113.17  0.000143    0.08    113.25   
    49. A(C   4,C   6,O   7)          122.80  0.001037   -0.15    122.65   
    50. A(C   9,N   8,H  18)          118.39  0.000882   -0.07    118.32   
    51. A(C   6,N   8,H  18)          117.69 -0.001138   -0.12    117.57   
    52. A(C   6,N   8,C   9)          123.32  0.000237   -0.01    123.32   
    53. A(N   8,C   9,H  19)          110.23 -0.000066    0.21    110.44   
    54. A(H  20,C   9,H  21)          109.71  0.000113    0.17    109.87   
    55. A(H  19,C   9,H  21)          109.12 -0.000115    0.01    109.13   
    56. A(N   8,C   9,H  21)          109.87 -0.000380    0.06    109.93   
    57. A(H  19,C   9,H  20)          109.63 -0.000284   -0.13    109.50   
    58. A(N   8,C   9,H  20)          108.27  0.000736   -0.32    107.95   
    59. D(O   2,C   1,C   0,H  10)     94.10  0.000047    3.77     97.87   
    60. D(O   2,C   1,C   0,H  11)   -145.78 -0.000054    3.73   -142.05   
    61. D(N   3,C   1,C   0,H  11)     35.31 -0.000162    3.36     38.68   
    62. D(N   3,C   1,C   0,H  10)    -84.81 -0.000061    3.40    -81.40   
    63. D(O   2,C   1,C   0,H  12)    -24.33 -0.000567    3.65    -20.68   
    64. D(H  13,N   3,C   1,C   0)      1.99 -0.000220    2.01      3.99   
    65. D(C   4,N   3,C   1,C   0)   -177.11  0.000259   -0.89   -178.00   
    66. D(H  13,N   3,C   1,O   2)   -176.94 -0.000331    1.64   -175.29   
    67. D(C   4,N   3,C   1,O   2)      3.97  0.000148   -1.25      2.71   
    68. D(H  14,C   4,N   3,C   1)     33.41  0.000033    0.65     34.06   
    69. D(C   6,C   4,N   3,H  13)     97.35 -0.000015   -2.17     95.18   
    70. D(C   6,C   4,N   3,C   1)    -83.53 -0.000482    0.64    -82.89   
    71. D(C   5,C   4,N   3,H  13)    -24.92  0.000264   -2.39    -27.31   
    72. D(C   5,C   4,N   3,C   1)    154.20 -0.000204    0.42    154.62   
    73. D(H  15,C   5,C   4,N   3)   -173.81 -0.000060    0.60   -173.21   
    74. D(H  16,C   5,C   4,H  14)   -173.54  0.000069    0.19   -173.35   
    75. D(H  16,C   5,C   4,C   6)    -53.69 -0.000024    0.25    -53.43   
    76. D(H  16,C   5,C   4,N   3)     67.61 -0.000293    0.60     68.21   
    77. D(H  15,C   5,C   4,H  14)    -54.96  0.000302    0.20    -54.77   
    78. D(H  15,C   5,C   4,C   6)     64.89  0.000208    0.25     65.15   
    79. D(N   8,C   6,C   4,C   5)   -164.93 -0.000034    0.63   -164.30   
    80. D(N   8,C   6,C   4,N   3)     73.40  0.000308    0.44     73.84   
    81. D(O   7,C   6,C   4,H  14)    136.68 -0.000442    0.68    137.37   
    82. D(O   7,C   6,C   4,C   5)     15.11 -0.000010    0.67     15.78   
    83. D(O   7,C   6,C   4,N   3)   -106.56  0.000332    0.48   -106.08   
    84. D(H  18,N   8,C   6,O   7)    174.22 -0.000009    0.05    174.27   
    85. D(H  18,N   8,C   6,C   4)     -5.74  0.000014    0.09     -5.65   
    86. D(C   9,N   8,C   6,O   7)      3.23  0.000062    0.23      3.47   
    87. D(C   9,N   8,C   6,C   4)   -176.73  0.000085    0.27   -176.45   
    88. D(H  19,C   9,N   8,H  18)    -51.88  0.000379   -4.67    -56.55   
    89. D(H  19,C   9,N   8,C   6)    119.05  0.000137   -4.94    114.11   
    90. D(H  21,C   9,N   8,C   6)   -120.66 -0.000290   -4.76   -125.42   
    91. D(H  20,C   9,N   8,H  18)   -171.80  0.000313   -4.44   -176.24   
    92. D(H  20,C   9,N   8,C   6)     -0.87  0.000070   -4.71     -5.58   
    ----------------------------------------------------------------------------

Geometry step timings:
Preparation and reading OPT file:      0.001 s ( 3.110 %)
Internal coordinates            :      0.000 s ( 0.201 %)
B/P matrices and projection     :      0.003 s ( 7.557 %)
Hessian update/contruction      :      0.016 s (49.103 %)
Making the step                 :      0.002 s ( 6.614 %)
Converting the step to Cartesian:      0.000 s ( 0.647 %)
Storing new data                :      0.005 s (15.382 %)
Checking convergence            :      0.000 s ( 0.297 %)
Final printing                  :      0.006 s (17.084 %)
Total time                      :      0.033 s

Time for energy+gradient        :      0.151 s
Time for complete geometry iter :      0.214 s

         *************************************************************
         *                GEOMETRY OPTIMIZATION CYCLE  11            *
         *************************************************************
---------------------------------
CARTESIAN COORDINATES (ANGSTROEM)
---------------------------------
  C     2.237006    1.753215    1.165217
  C     1.442653    1.037237    0.105136
  O     1.158656    1.545687   -0.979802
  N     1.047560   -0.201171    0.432044
  C     0.308684   -1.065074   -0.473386
  C     0.544965   -2.522269   -0.112001
  C    -1.192123   -0.715020   -0.415340
  O    -2.016706   -1.427615    0.147490
  N    -1.489866    0.429812   -1.032737
  C    -2.816481    1.003349   -1.047850
  H     1.549244    2.174988    1.894338
  H     2.917171    1.076804    1.672678
  H     2.797786    2.562124    0.706956
  H     1.236341   -0.560336    1.355436
  H     0.665164   -0.853795   -1.488366
  H     0.090246   -3.164185   -0.860380
  H     0.084139   -2.748872    0.846260
  H     1.608778   -2.737335   -0.065786
  H    -0.718759    0.987058   -1.389303
  H    -2.830106    1.945713   -0.499912
  H    -3.492817    0.296604   -0.571760
  H    -3.131528    1.183080   -2.074668

----------------------------
CARTESIAN COORDINATES (A.U.)
----------------------------
  NO LB    ZA    FRAG    MASS        X           Y           Z
   0 C   6.0000    0    12.011    4.227329    3.313096    2.201940
   1 C   6.0000    0    12.011    2.726219    1.960094    0.198678
   2 O   8.0000    0    15.999    2.189542    2.920925   -1.851557
   3 N   7.0000    0    14.007    1.979601   -0.380159    0.816444
   4 C   6.0000    0    12.011    0.583327   -2.012697   -0.894570
   5 C   6.0000    0    12.011    1.029834   -4.766397   -0.211651
   6 C   6.0000    0    12.011   -2.252785   -1.351191   -0.784878
   7 O   8.0000    0    15.999   -3.811023   -2.697802    0.278715
   8 N   7.0000    0    14.007   -2.815439    0.812228   -1.951591
   9 C   6.0000    0    12.011   -5.322377    1.896055   -1.980150
  10 H   1.0000    0     1.008    2.927646    4.110131    3.579781
  11 H   1.0000    0     1.008    5.512654    2.034865    3.160903
  12 H   1.0000    0     1.008    5.287049    4.841713    1.335954
  13 H   1.0000    0     1.008    2.336346   -1.058881    2.561402
  14 H   1.0000    0     1.008    1.256977   -1.613438   -2.812603
  15 H   1.0000    0     1.008    0.170540   -5.979443   -1.625883
  16 H   1.0000    0     1.008    0.159001   -5.194615    1.599199
  17 H   1.0000    0     1.008    3.040150   -5.172814   -0.124318
  18 H   1.0000    0     1.008   -1.358258    1.865269   -2.625402
  19 H   1.0000    0     1.008   -5.348126    3.676865   -0.944697
  20 H   1.0000    0     1.008   -6.600467    0.560500   -1.080470
  21 H   1.0000    0     1.008   -5.917731    2.235697   -3.920555

      -----------------------------------------------------------      
     |                   =====================                   |     
     |                           x T B                           |     
     |                   =====================                   |     
     |                         S. Grimme                         |     
     |          Mulliken Center for Theoretical Chemistry        |     
     |                    University of Bonn                     |     
      -----------------------------------------------------------      

   * xtb version 6.7.1 (edcfbbe) compiled by 'albert@albert-system' on 2024-07-22

   xtb is free software: you can redistribute it and/or modify it under
   the terms of the GNU Lesser General Public License as published by
   the Free Software Foundation, either version 3 of the License, or
   (at your option) any later version.
   
   xtb is distributed in the hope that it will be useful,
   but WITHOUT ANY WARRANTY; without even the implied warranty of
   MERCHANTABILITY or FITNESS FOR A PARTICULAR PURPOSE.  See the
   GNU Lesser General Public License for more details.
   
   Cite this work as:
   * C. Bannwarth, E. Caldeweyher, S. Ehlert, A. Hansen, P. Pracht,
     J. Seibert, S. Spicher, S. Grimme, WIREs Comput. Mol. Sci., 2020, 11,
     e01493. DOI: 10.1002/wcms.1493
   
   for GFN2-xTB:
   * C. Bannwarth, S. Ehlert and S. Grimme., J. Chem. Theory Comput., 2019,
     15, 1652-1671. DOI: 10.1021/acs.jctc.8b01176
   for GFN1-xTB:
   * S. Grimme, C. Bannwarth, P. Shushkov, J. Chem. Theory Comput., 2017,
     13, 1989-2009. DOI: 10.1021/acs.jctc.7b00118
   for GFN0-xTB:
   * P. Pracht, E. Caldeweyher, S. Ehlert, S. Grimme, ChemRxiv, 2019, preprint.
     DOI: 10.26434/chemrxiv.8326202.v1
   for GFN-FF:
   * S. Spicher and S. Grimme, Angew. Chem. Int. Ed., 2020, 59, 15665-15673.
     DOI: 10.1002/anie.202004239
   
   for ALPB and GBSA implicit solvation:
   * S. Ehlert, M. Stahn, S. Spicher, S. Grimme, J. Chem. Theory Comput.,
     2021, 17, 4250-4261. DOI: 10.1021/acs.jctc.1c00471
   
   for ddCOSMO and CPCM-X implicit solvation:
   * M. Stahn, S. Ehlert, S. Grimme, J. Phys. Chem. A,
     2023, XX, XXXX-XXXX. DOI: 10.1021/acs.jpca.3c04382
   
   for DFT-D4:
   * E. Caldeweyher, C. Bannwarth and S. Grimme, J. Chem. Phys., 2017,
     147, 034112. DOI: 10.1063/1.4993215
   * E. Caldeweyher, S. Ehlert, A. Hansen, H. Neugebauer, S. Spicher,
     C. Bannwarth and S. Grimme, J. Chem. Phys., 2019, 150, 154122.
     DOI: 10.1063/1.5090222
   * E. Caldeweyher, J.-M. Mewes, S. Ehlert and S. Grimme, Phys. Chem. Chem. Phys.
     2020, 22, 8499-8512. DOI: 10.1039/D0CP00502A
   
   for sTDA-xTB:
   * S. Grimme and C. Bannwarth, J. Chem. Phys., 2016, 145, 054103.
     DOI: 10.1063/1.4959605
   
   in the mass-spec context:
   * V. Asgeirsson, C. Bauer and S. Grimme, Chem. Sci., 2017, 8, 4879.
     DOI: 10.1039/c7sc00601b
   * J. Koopman and S. Grimme, ACS Omega 2019, 4, 12, 15120-15133.
     DOI: 10.1021/acsomega.9b02011
   
   for metadynamics refer to:
   * S. Grimme, J. Chem. Theory Comput., 2019, 155, 2847-2862
     DOI: 10.1021/acs.jctc.9b00143
   
   for SPH calculations refer to:
   * S. Spicher and S. Grimme, J. Chem. Theory Comput., 2021, 17, 1701-1714
     DOI: 10.1021/acs.jctc.0c01306
   
   for ONIOM refer to:
   * C. Plett, A. Katbashev, S. Ehlert, S. Grimme, M. Bursch,
     Phys. Chem. Chem. Phys., 2023, 25, 17860-17868. DOI: 10.1039/D3CP02178E
   
   for DIPRO refer to:
   * J. Kohn, N. Gildemeister, S. Grimme, D. Fazzi, A. Hansen,
     J. Chem. Phys., 2023, just accepted.
   
   for PTB refer to:
   * S. Grimme, M. Mueller, A. Hansen, J. Chem. Phys., 2023, 158, 124111.
     DOI: 10.1063/5.0137838
   
   with help from (in alphabetical order)
   P. Atkinson, C. Bannwarth, F. Bohle, G. Brandenburg, E. Caldeweyher
   M. Checinski, S. Dohm, S. Ehlert, S. Ehrlich, I. Gerasimov, C. Hölzer
   A. Katbashev, J. Kohn, J. Koopman, C. Lavigne, S. Lehtola, F. März, M. Müller,
   F. Musil, H. Neugebauer, J. Pisarek, C. Plett, P. Pracht, F. Pultar,
   J. Seibert, P. Shushkov, S. Spicher, M. Stahn, M. Steiner, T. Strunk,
   J. Stückrath, T. Rose, and J. Unsleber
   
 * started run on 2026/09/28 at 23:19:03.694     
   ID    Z sym.   atoms
    1    6 C      1, 2, 5-7, 10
    2    8 O      3, 8
    3    7 N      4, 9
    4    1 H      11-22

           -------------------------------------------------
          |                Calculation Setup                |
           -------------------------------------------------

          program call               : /app1/ebapps/arches/flat-avx2/software/ORCA/6.1.0-gompi-2023b-avx2/bin/otool_xtb o01-xtb-opt-freq_XTB.xyz --grad -c 0 -u 0 -P 8 --namespace o01-xtb-opt-freq --input o01-xtb-opt-freq_XTB.input.tmp --alpb WATER --acc 0.200000
          hostname                   : IN-006
          calculation namespace      : o01-xtb-opt-freq
          coordinate file            : o01-xtb-opt-freq_XTB.xyz
          omp threads                :                     8


           -------------------------------------------------
          |                 G F N 2 - x T B                 |
           -------------------------------------------------

        Reference                      10.1021/acs.jctc.8b01176
      * Hamiltonian:
        H0-scaling (s, p, d)           1.850000    2.230000    2.230000
        zeta-weighting                 0.500000
      * Dispersion:
        s8                             2.700000
        a1                             0.520000
        a2                             5.000000
        s9                             5.000000
      * Repulsion:
        kExp                           1.500000    1.000000
        rExp                           1.000000
      * Coulomb:
        alpha                          2.000000
        third order                    shell-resolved
        anisotropic                    true
        a3                             3.000000
        a5                             4.000000
        cn-shift                       1.200000
        cn-exp                         4.000000
        max-rad                        5.000000

      * Solvation model:               ALPB
        Solvent                        WATER
        Parameter file                 internal GFN2-xTB/ALPB
        Dielectric constant                8.0200E+01
        Reference state                gsolv [1 M gas/solution]
        Free energy shift                  1.0808E-03 Eh       6.7819E-01 kcal/mol
        Temperature                        2.9815E+02 K
        Density                            1.0000E+00 kg/L
        Solvent mass                       1.8000E+01 g/mol
        Interaction kernel             P16
        Born radius scaling (c1)           1.4744E+00
        Born radii integrator          GBOBC
        Born offset                        0.0000E+00 a0       0.0000E+00 AA
        H-bond correction              true
        Ion screening                  false
        Surface tension                    1.0000E-05 Eh       1.5569E+01 dyn/cm
        Grid points                               230 per atom
q/qsh data taken from xtbrestart
CAMM data taken from xtbrestart

          ...................................................
          :                      SETUP                      :
          :.................................................:
          :  # basis functions                  52          :
          :  # atomic orbitals                  52          :
          :  # shells                           32          :
          :  # electrons                        58          :
          :  max. iterations                   250          :
          :  Hamiltonian                  GFN2-xTB          :
          :  restarted?                       true          :
          :  GBSA solvation                   true          :
          :  PC potential                    false          :
          :  electronic temp.          300.0000000     K    :
          :  accuracy                    0.2000000          :
          :  -> integral cutoff          0.3198970E+02      :
          :  -> integral neglect         0.2000000E-08      :
          :  -> SCF convergence          0.2000000E-06 Eh   :
          :  -> wf. convergence          0.2000000E-04 e    :
          :  Broyden damping             0.4000000          :
          :  net charge                          0          :
          :  unpaired electrons                  0          :
          ...................................................

 iter      E             dE          RMSdq      gap      omega  full diag
   1    -33.3795733 -0.333796E+02  0.795E-02    4.60       0.0  T
   2    -33.3795741 -0.813657E-06  0.474E-02    4.60       1.0  T
   3    -33.3795743 -0.175786E-06  0.388E-03    4.60       5.5  T
   4    -33.3795744 -0.118370E-06  0.199E-03    4.60      10.7  T
   5    -33.3795744 -0.642941E-08  0.527E-04    4.60      40.5  T
   6    -33.3795744 -0.815533E-09  0.185E-04    4.60     115.4  T
   7    -33.3795744 -0.537455E-10  0.538E-05    4.60     396.3  T

   *** convergence criteria satisfied after 7 iterations ***

         #    Occupation            Energy/Eh            Energy/eV
      -------------------------------------------------------------
         1        2.0000           -0.7093345             -19.3020
       ...           ...                  ...                  ...
        23        2.0000           -0.4655987             -12.6696
        24        2.0000           -0.4622124             -12.5774
        25        2.0000           -0.4550912             -12.3837
        26        2.0000           -0.4330041             -11.7826
        27        2.0000           -0.4084670             -11.1150
        28        2.0000           -0.4026223             -10.9559
        29        2.0000           -0.3908971             -10.6369 (HOMO)
        30                         -0.2218593              -6.0371 (LUMO)
        31                         -0.2130738              -5.7980
        32                          0.0050424               0.1372
        33                          0.0074726               0.2033
        34                          0.0865573               2.3553
       ...                                ...                  ...
        52                          0.6073070              16.5257
      -------------------------------------------------------------
                  HL-Gap            0.1690378 Eh            4.5998 eV
             Fermi-level           -0.3063782 Eh           -8.3370 eV

 SCC (total)                   0 d,  0 h,  0 min,  0.010 sec
 SCC setup                      ...        0 min,  0.000 sec (  4.108%)
 Dispersion                     ...        0 min,  0.000 sec (  1.555%)
 classical contributions        ...        0 min,  0.000 sec (  0.217%)
 integral evaluation            ...        0 min,  0.001 sec (  7.157%)
 iterations                     ...        0 min,  0.007 sec ( 69.428%)
 molecular gradient             ...        0 min,  0.002 sec ( 16.319%)
 printout                       ...        0 min,  0.000 sec (  0.982%)

         :::::::::::::::::::::::::::::::::::::::::::::::::::::
         ::                     SUMMARY                     ::
         :::::::::::::::::::::::::::::::::::::::::::::::::::::
         :: total energy             -32.991203124061 Eh    ::
         :: total w/o Gsasa/hb       -32.988841519130 Eh    ::
         :: gradient norm              0.004165219056 Eh/a0 ::
         :: HOMO-LUMO gap              4.599752211868 eV    ::
         ::.................................................::
         :: SCC energy               -33.379470234443 Eh    ::
         :: -> isotropic ES            0.104247347885 Eh    ::
         :: -> anisotropic ES          0.001222992051 Eh    ::
         :: -> anisotropic XC          0.010671440675 Eh    ::
         :: -> dispersion             -0.015446730847 Eh    ::
         :: -> Gsolv                  -0.020277262181 Eh    ::
         ::    -> Gelec               -0.017915657250 Eh    ::
         ::    -> Gsasa                0.001573488400 Eh    ::
         ::    -> Ghb                 -0.005015853030 Eh    ::
         ::    -> Gshift               0.001080759698 Eh    ::
         :: repulsion energy           0.388267110382 Eh    ::
         :: add. restraining           0.000000000000 Eh    ::
         :: total charge               0.000000000000 e     ::
         :::::::::::::::::::::::::::::::::::::::::::::::::::::


Property printout bound to 'properties.out'

           -------------------------------------------------
          | TOTAL ENERGY              -32.991203124061 Eh   |
          | GRADIENT NORM               0.004165219056 Eh/α |
          | HOMO-LUMO GAP               4.599752211868 eV   |
           -------------------------------------------------

------------------------------------------------------------------------
 * finished run on 2026/09/28 at 23:19:03.757     
------------------------------------------------------------------------
 total:
 * wall-time:     0 d,  0 h,  0 min,  0.061 sec
 *  cpu-time:     0 d,  0 h,  0 min,  0.397 sec
 * ratio c/w:     6.501 speedup
 SCF:
 * wall-time:     0 d,  0 h,  0 min,  0.010 sec
 *  cpu-time:     0 d,  0 h,  0 min,  0.081 sec
 * ratio c/w:     7.902 speedup


-------------------------   --------------------
FINAL SINGLE POINT ENERGY       -32.991203124060
-------------------------   --------------------


-------------
DIPOLE MOMENT
-------------
                                X             Y             Z
Total Dipole Moment    :      1.13300       0.34700       0.78800
                        -----------------------------------------
Magnitude (a.u.)       :      1.42304
Magnitude (Debye)      :      3.61708


------------------
CARTESIAN GRADIENT
------------------

   1   C   :   -0.000491540    0.000211843    0.000359155
   2   C   :   -0.000003598    0.000183876   -0.001233622
   3   O   :   -0.000255197   -0.000526772    0.000722669
   4   N   :   -0.000587051   -0.000382737    0.000147197
   5   C   :    0.000264755    0.001601617   -0.000196763
   6   C   :   -0.000884930    0.001238019   -0.000196082
   7   C   :    0.001329580   -0.000322050    0.000193626
   8   O   :   -0.000172782    0.000477784   -0.000315596
   9   N   :   -0.001238959    0.000110940   -0.000551351
  10   C   :   -0.000642162   -0.000658921    0.000219095
  11   H   :    0.000133281   -0.000297265   -0.000096685
  12   H   :    0.000129773    0.000352770    0.000181629
  13   H   :    0.000399791   -0.000475898    0.000060245
  14   H   :    0.000247730    0.000282750   -0.000111400
  15   H   :   -0.000108370   -0.000478049    0.000043279
  16   H   :    0.000469282   -0.000238039    0.000125946
  17   H   :    0.000431254   -0.000451274   -0.000076223
  18   H   :   -0.000051675   -0.000521133    0.000143455
  19   H   :    0.000739506   -0.000820179    0.000560455
  20   H   :   -0.000113250    0.000032475   -0.000098545
  21   H   :    0.000304561    0.000364402    0.000083850
  22   H   :    0.000100001    0.000315842    0.000035668

Difference to translation invariance:
           :   -0.0000000000    0.0000000000    0.0000000000

Difference to rotation invariance:
           :    0.0000874710    0.0000541467    0.0001703632

Norm of the Cartesian gradient     ...    0.0041652191
RMS gradient                       ...    0.0005127030
MAX gradient                       ...    0.0016016169
------------------------------------------------------------------------------
                         ORCA GEOMETRY RELAXATION STEP
------------------------------------------------------------------------------

Reading the OPT-File                    .... done
Getting information on internals        .... done
Copying old internal coords+grads       .... done
Making the new internal coordinates     .... (2022 redundants) done
Validating the new internal coordinates .... (2022 redundants) done
Calculating the B-matrix                .... done
Calculating the G,G- and P matrices     .... done
Transforming gradient to internals      .... done
Projecting the internal gradient        .... done
Number of atoms                         ....  22
Number of internal coordinates          ....  92
Current Energy                          ....   -32.991203124 Eh
Current gradient norm                   ....     0.004165219 Eh/bohr
Maximum allowed component of the step   ....  0.300
Current trust radius                    ....  0.700
Updating the Hessian (BFGS)             .... done
Forming the augmented Hessian           .... done
Diagonalizing the augmented Hessian     .... done
Last element of RFO vector              ....  0.991333128
Lowest eigenvalues of augmented Hessian:
 -0.000083005  0.001045276  0.004236379  0.011150913  0.011865504
Length of the computed step             ....  0.132520646
The final length of the internal step   ....  0.132520646
Converting the step to Cartesian space:
 Initial RMS(Int)=    0.0138162324
Transforming coordinates:
 Iter   0:  RMS(Cart)=    0.0213105543 RMS(Int)=    0.0138107884
done
Storing new coordinates                 .... done
The predicted energy change is          ....    -0.000042231
Previously predicted energy change      ....    -0.000089100
Actually observed energy change         ....    -0.000115537
Ratio of predicted to observed change   ....     1.296714785
New trust radius                        ....     0.700000000

                                .--------------------.
          ----------------------|Geometry convergence|-------------------------
          Item                value                   Tolerance       Converged
          ---------------------------------------------------------------------
          Energy change      -0.0001155370            0.0000050000      NO
          RMS gradient        0.0003327891            0.0001000000      NO
          MAX gradient        0.0013257894            0.0003000000      NO
          RMS step            0.0138162324            0.0020000000      NO
          MAX step            0.0446435148            0.0040000000      NO
          -------------------------------------------------------------------------
          ........................................................
          Max(Bonds)      0.0081      Max(Angles)    0.29
          Max(Dihed)        2.56      Max(Improp)    0.00
          ---------------------------------------------------------------------

The optimization has not yet converged - more geometry cycles are needed


    ---------------------------------------------------------------------------
                         Redundant Internal Coordinates
                            (Angstroem and degrees)

        Definition                    Value    dE/dq     Step     New-Value
    ----------------------------------------------------------------------------
     1. B(C   1,C   0)                1.5058  0.000345 -0.0004    1.5054   
     2. B(O   2,C   1)                1.2314 -0.000820  0.0005    1.2319   
     3. B(N   3,C   1)                1.3404 -0.000495  0.0004    1.3407   
     4. B(C   4,N   3)                1.4533 -0.000523  0.0001    1.4534   
     5. B(C   5,C   4)                1.5198 -0.000030  0.0004    1.5203   
     6. B(C   6,C   4)                1.5422 -0.000338  0.0005    1.5427   
     7. B(O   7,C   6)                1.2266 -0.000306  0.0004    1.2269   
     8. B(N   8,C   6)                1.3343 -0.000474  0.0001    1.3344   
     9. B(C   9,N   8)                1.4454  0.000339 -0.0005    1.4449   
    10. B(H  10,C   0)                1.0874 -0.000266  0.0004    1.0879   
    11. B(H  11,C   0)                1.0852 -0.000053  0.0000    1.0852   
    12. B(H  12,C   0)                1.0857 -0.000173  0.0003    1.0860   
    13. B(H  13,N   3)                1.0086 -0.000156  0.0004    1.0090   
    14. B(H  14,C   4)                1.0963 -0.000169  0.0005    1.0968   
    15. B(H  15,C   5)                1.0858 -0.000143  0.0002    1.0859   
    16. B(H  16,C   5)                1.0872 -0.000153  0.0002    1.0873   
    17. B(H  17,C   5)                1.0863  0.000057 -0.0003    1.0860   
    18. B(H  18,O   2)                2.0011 -0.000085  0.0081    2.0092   
    19. B(H  18,N   8)                1.0160 -0.000152 -0.0002    1.0159   
    20. B(H  19,C   9)                1.0902 -0.000020  0.0002    1.0904   
    21. B(H  20,C   9)                1.0879 -0.000392  0.0008    1.0887   
    22. B(H  21,C   9)                1.0890 -0.000009 -0.0004    1.0886   
    23. A(H  11,C   0,H  12)          109.76 -0.000548    0.19    109.94   
    24. A(C   1,C   0,H  11)          111.31  0.000446   -0.19    111.13   
    25. A(C   1,C   0,H  12)          109.24  0.000055   -0.00    109.24   
    26. A(C   1,C   0,H  10)          108.83 -0.000067    0.07    108.90   
    27. A(H  10,C   0,H  12)          108.71  0.000347   -0.14    108.57   
    28. A(H  10,C   0,H  11)          108.94 -0.000228    0.07    109.02   
    29. A(O   2,C   1,N   3)          121.90 -0.000121    0.03    121.92   
    30. A(C   0,C   1,N   3)          115.03 -0.000474    0.01    115.04   
    31. A(C   0,C   1,O   2)          123.07  0.000596   -0.03    123.04   
    32. A(C   4,N   3,H  13)          116.99  0.000348   -0.09    116.90   
    33. A(C   1,N   3,C   4)          123.17 -0.000065    0.09    123.26   
    34. A(C   1,N   3,H  13)          119.81 -0.000276   -0.10    119.71   
    35. A(C   5,C   4,C   6)          111.10 -0.000166    0.06    111.15   
    36. A(N   3,C   4,C   5)          110.05 -0.000205    0.04    110.08   
    37. A(N   3,C   4,C   6)          109.66  0.000285    0.12    109.77   
    38. A(C   6,C   4,H  14)          107.91  0.000131   -0.03    107.88   
    39. A(C   5,C   4,H  14)          110.75 -0.000278    0.10    110.86   
    40. A(N   3,C   4,H  14)          107.27  0.000258   -0.29    106.99   
    41. A(H  16,C   5,H  17)          109.65 -0.000627    0.20    109.86   
    42. A(C   4,C   5,H  17)          110.62  0.000487   -0.12    110.50   
    43. A(H  15,C   5,H  16)          107.87 -0.000339    0.04    107.90   
    44. A(C   4,C   5,H  16)          110.09  0.000668   -0.18    109.91   
    45. A(C   4,C   5,H  15)          109.75  0.000358   -0.13    109.61   
    46. A(H  15,C   5,H  17)          108.81 -0.000584    0.21    109.02   
    47. A(O   7,C   6,N   8)          124.11 -0.000666    0.10    124.21   
    48. A(C   4,C   6,N   8)          113.23  0.000144    0.06    113.29   
    49. A(C   4,C   6,O   7)          122.66  0.000522   -0.16    122.50   
    50. A(C   9,N   8,H  18)          118.38  0.000895   -0.18    118.20   
    51. A(C   6,N   8,H  18)          117.62 -0.001326    0.25    117.86   
    52. A(C   6,N   8,C   9)          123.37  0.000415   -0.06    123.31   
    53. A(N   8,C   9,H  19)          110.44  0.000089    0.09    110.53   
    54. A(H  20,C   9,H  21)          109.88  0.000214   -0.04    109.84   
    55. A(H  19,C   9,H  21)          109.13 -0.000234    0.08    109.20   
    56. A(N   8,C   9,H  21)          109.93  0.000058    0.05    109.98   
    57. A(H  19,C   9,H  20)          109.50 -0.000131   -0.02    109.48   
    58. A(N   8,C   9,H  20)          107.95  0.000009   -0.16    107.80   
    59. D(O   2,C   1,C   0,H  10)     97.87 -0.000018    2.43    100.30   
    60. D(O   2,C   1,C   0,H  11)   -142.05 -0.000067    2.45   -139.60   
    61. D(N   3,C   1,C   0,H  11)     38.68 -0.000104    2.08     40.76   
    62. D(N   3,C   1,C   0,H  10)    -81.40 -0.000055    2.07    -79.34   
    63. D(O   2,C   1,C   0,H  12)    -20.68 -0.000429    2.56    -18.12   
    64. D(H  13,N   3,C   1,C   0)      3.99 -0.000096    1.26      5.26   
    65. D(C   4,N   3,C   1,C   0)   -178.00  0.000161   -0.67   -178.66   
    66. D(H  13,N   3,C   1,O   2)   -175.29 -0.000139    0.90   -174.39   
    67. D(C   4,N   3,C   1,O   2)      2.72  0.000119   -1.02      1.70   
    68. D(H  14,C   4,N   3,C   1)     34.06  0.000136    0.41     34.48   
    69. D(C   6,C   4,N   3,H  13)     95.19 -0.000076   -1.33     93.86   
    70. D(C   6,C   4,N   3,C   1)    -82.88 -0.000315    0.55    -82.33   
    71. D(C   5,C   4,N   3,H  13)    -27.31  0.000077   -1.49    -28.80   
    72. D(C   5,C   4,N   3,C   1)    154.63 -0.000162    0.38    155.01   
    73. D(H  15,C   5,C   4,N   3)   -173.21  0.000178   -0.06   -173.27   
    74. D(H  16,C   5,C   4,H  14)   -173.35 -0.000014   -0.18   -173.53   
    75. D(H  16,C   5,C   4,C   6)    -53.43 -0.000143   -0.12    -53.55   
    76. D(H  16,C   5,C   4,N   3)     68.21 -0.000033    0.09     68.30   
    77. D(H  15,C   5,C   4,H  14)    -54.77  0.000196   -0.33    -55.10   
    78. D(H  15,C   5,C   4,C   6)     65.15  0.000067   -0.27     64.88   
    79. D(N   8,C   6,C   4,C   5)   -164.30 -0.000009    0.03   -164.27   
    80. D(N   8,C   6,C   4,N   3)     73.83  0.000166   -0.13     73.70   
    81. D(O   7,C   6,C   4,H  14)    137.37 -0.000306    0.20    137.57   
    82. D(O   7,C   6,C   4,C   5)     15.78  0.000055    0.07     15.84   
    83. D(O   7,C   6,C   4,N   3)   -106.09  0.000230   -0.09   -106.18   
    84. D(H  18,N   8,C   6,O   7)    174.24  0.000023    0.26    174.50   
    85. D(H  18,N   8,C   6,C   4)     -5.68  0.000087    0.30     -5.38   
    86. D(C   9,N   8,C   6,O   7)      3.49  0.000062   -0.41      3.07   
    87. D(C   9,N   8,C   6,C   4)   -176.43  0.000126   -0.38   -176.81   
    88. D(H  19,C   9,N   8,H  18)    -56.57  0.000150   -2.43    -59.00   
    89. D(H  19,C   9,N   8,C   6)    114.12 -0.000082   -1.77    112.35   
    90. D(H  21,C   9,N   8,C   6)   -125.41 -0.000278   -1.58   -127.00   
    91. D(H  20,C   9,N   8,H  18)   -176.25  0.000252   -2.35   -178.61   
    92. D(H  20,C   9,N   8,C   6)     -5.57  0.000020   -1.70     -7.27   
    ----------------------------------------------------------------------------

Geometry step timings:
Preparation and reading OPT file:      0.001 s ( 2.819 %)
Internal coordinates            :      0.000 s ( 0.196 %)
B/P matrices and projection     :      0.002 s ( 7.391 %)
Hessian update/contruction      :      0.017 s (50.435 %)
Making the step                 :      0.002 s ( 6.400 %)
Converting the step to Cartesian:      0.000 s ( 0.607 %)
Storing new data                :      0.005 s (14.991 %)
Checking convergence            :      0.000 s ( 0.277 %)
Final printing                  :      0.006 s (16.875 %)
Total time                      :      0.034 s

Time for energy+gradient        :      0.151 s
Time for complete geometry iter :      0.214 s

         *************************************************************
         *                GEOMETRY OPTIMIZATION CYCLE  12            *
         *************************************************************
---------------------------------
CARTESIAN COORDINATES (ANGSTROEM)
---------------------------------
  C     2.236399    1.754766    1.162528
  C     1.447044    1.035361    0.101615
  O     1.169652    1.540173   -0.987346
  N     1.055022   -0.204331    0.428818
  C     0.308792   -1.068086   -0.470928
  C     0.541757   -2.525855   -0.107840
  C    -1.191144   -0.712426   -0.411425
  O    -2.015113   -1.423070    0.155533
  N    -1.487019    0.432166   -1.030392
  C    -2.813570    1.004563   -1.049866
  H     1.548685    2.144224    1.910092
  H     2.942272    1.086698    1.645370
  H     2.765230    2.589032    0.711196
  H     1.226550   -0.553859    1.359650
  H     0.664924   -0.856916   -1.486624
  H     0.079192   -3.165613   -0.853502
  H     0.082413   -2.746123    0.852784
  H     1.605216   -2.742275   -0.066504
  H    -0.718595    0.987698   -1.394883
  H    -2.838395    1.931636   -0.476361
  H    -3.494242    0.282353   -0.602135
  H    -3.115067    1.209884   -2.075518

----------------------------
CARTESIAN COORDINATES (A.U.)
----------------------------
  NO LB    ZA    FRAG    MASS        X           Y           Z
   0 C   6.0000    0    12.011    4.226181    3.316026    2.196860
   1 C   6.0000    0    12.011    2.734517    1.956549    0.192024
   2 O   8.0000    0    15.999    2.210322    2.910506   -1.865813
   3 N   7.0000    0    14.007    1.993702   -0.386130    0.810348
   4 C   6.0000    0    12.011    0.583533   -2.018391   -0.889925
   5 C   6.0000    0    12.011    1.023773   -4.773175   -0.203789
   6 C   6.0000    0    12.011   -2.250936   -1.346290   -0.777480
   7 O   8.0000    0    15.999   -3.808012   -2.689213    0.293914
   8 N   7.0000    0    14.007   -2.810059    0.816676   -1.947158
   9 C   6.0000    0    12.011   -5.316876    1.898349   -1.983958
  10 H   1.0000    0     1.008    2.926590    4.051997    3.609551
  11 H   1.0000    0     1.008    5.560087    2.053562    3.109299
  12 H   1.0000    0     1.008    5.225528    4.892561    1.343965
  13 H   1.0000    0     1.008    2.317843   -1.046641    2.569367
  14 H   1.0000    0     1.008    1.256524   -1.619337   -2.809313
  15 H   1.0000    0     1.008    0.149651   -5.982142   -1.612884
  16 H   1.0000    0     1.008    0.155738   -5.189420    1.611528
  17 H   1.0000    0     1.008    3.033418   -5.182148   -0.125674
  18 H   1.0000    0     1.008   -1.357947    1.866478   -2.635947
  19 H   1.0000    0     1.008   -5.363789    3.650263   -0.900192
  20 H   1.0000    0     1.008   -6.603159    0.533570   -1.137870
  21 H   1.0000    0     1.008   -5.886623    2.286349   -3.922161

      -----------------------------------------------------------      
     |                   =====================                   |     
     |                           x T B                           |     
     |                   =====================                   |     
     |                         S. Grimme                         |     
     |          Mulliken Center for Theoretical Chemistry        |     
     |                    University of Bonn                     |     
      -----------------------------------------------------------      

   * xtb version 6.7.1 (edcfbbe) compiled by 'albert@albert-system' on 2024-07-22

   xtb is free software: you can redistribute it and/or modify it under
   the terms of the GNU Lesser General Public License as published by
   the Free Software Foundation, either version 3 of the License, or
   (at your option) any later version.
   
   xtb is distributed in the hope that it will be useful,
   but WITHOUT ANY WARRANTY; without even the implied warranty of
   MERCHANTABILITY or FITNESS FOR A PARTICULAR PURPOSE.  See the
   GNU Lesser General Public License for more details.
   
   Cite this work as:
   * C. Bannwarth, E. Caldeweyher, S. Ehlert, A. Hansen, P. Pracht,
     J. Seibert, S. Spicher, S. Grimme, WIREs Comput. Mol. Sci., 2020, 11,
     e01493. DOI: 10.1002/wcms.1493
   
   for GFN2-xTB:
   * C. Bannwarth, S. Ehlert and S. Grimme., J. Chem. Theory Comput., 2019,
     15, 1652-1671. DOI: 10.1021/acs.jctc.8b01176
   for GFN1-xTB:
   * S. Grimme, C. Bannwarth, P. Shushkov, J. Chem. Theory Comput., 2017,
     13, 1989-2009. DOI: 10.1021/acs.jctc.7b00118
   for GFN0-xTB:
   * P. Pracht, E. Caldeweyher, S. Ehlert, S. Grimme, ChemRxiv, 2019, preprint.
     DOI: 10.26434/chemrxiv.8326202.v1
   for GFN-FF:
   * S. Spicher and S. Grimme, Angew. Chem. Int. Ed., 2020, 59, 15665-15673.
     DOI: 10.1002/anie.202004239
   
   for ALPB and GBSA implicit solvation:
   * S. Ehlert, M. Stahn, S. Spicher, S. Grimme, J. Chem. Theory Comput.,
     2021, 17, 4250-4261. DOI: 10.1021/acs.jctc.1c00471
   
   for ddCOSMO and CPCM-X implicit solvation:
   * M. Stahn, S. Ehlert, S. Grimme, J. Phys. Chem. A,
     2023, XX, XXXX-XXXX. DOI: 10.1021/acs.jpca.3c04382
   
   for DFT-D4:
   * E. Caldeweyher, C. Bannwarth and S. Grimme, J. Chem. Phys., 2017,
     147, 034112. DOI: 10.1063/1.4993215
   * E. Caldeweyher, S. Ehlert, A. Hansen, H. Neugebauer, S. Spicher,
     C. Bannwarth and S. Grimme, J. Chem. Phys., 2019, 150, 154122.
     DOI: 10.1063/1.5090222
   * E. Caldeweyher, J.-M. Mewes, S. Ehlert and S. Grimme, Phys. Chem. Chem. Phys.
     2020, 22, 8499-8512. DOI: 10.1039/D0CP00502A
   
   for sTDA-xTB:
   * S. Grimme and C. Bannwarth, J. Chem. Phys., 2016, 145, 054103.
     DOI: 10.1063/1.4959605
   
   in the mass-spec context:
   * V. Asgeirsson, C. Bauer and S. Grimme, Chem. Sci., 2017, 8, 4879.
     DOI: 10.1039/c7sc00601b
   * J. Koopman and S. Grimme, ACS Omega 2019, 4, 12, 15120-15133.
     DOI: 10.1021/acsomega.9b02011
   
   for metadynamics refer to:
   * S. Grimme, J. Chem. Theory Comput., 2019, 155, 2847-2862
     DOI: 10.1021/acs.jctc.9b00143
   
   for SPH calculations refer to:
   * S. Spicher and S. Grimme, J. Chem. Theory Comput., 2021, 17, 1701-1714
     DOI: 10.1021/acs.jctc.0c01306
   
   for ONIOM refer to:
   * C. Plett, A. Katbashev, S. Ehlert, S. Grimme, M. Bursch,
     Phys. Chem. Chem. Phys., 2023, 25, 17860-17868. DOI: 10.1039/D3CP02178E
   
   for DIPRO refer to:
   * J. Kohn, N. Gildemeister, S. Grimme, D. Fazzi, A. Hansen,
     J. Chem. Phys., 2023, just accepted.
   
   for PTB refer to:
   * S. Grimme, M. Mueller, A. Hansen, J. Chem. Phys., 2023, 158, 124111.
     DOI: 10.1063/5.0137838
   
   with help from (in alphabetical order)
   P. Atkinson, C. Bannwarth, F. Bohle, G. Brandenburg, E. Caldeweyher
   M. Checinski, S. Dohm, S. Ehlert, S. Ehrlich, I. Gerasimov, C. Hölzer
   A. Katbashev, J. Kohn, J. Koopman, C. Lavigne, S. Lehtola, F. März, M. Müller,
   F. Musil, H. Neugebauer, J. Pisarek, C. Plett, P. Pracht, F. Pultar,
   J. Seibert, P. Shushkov, S. Spicher, M. Stahn, M. Steiner, T. Strunk,
   J. Stückrath, T. Rose, and J. Unsleber
   
 * started run on 2026/09/28 at 23:19:03.910     
   ID    Z sym.   atoms
    1    6 C      1, 2, 5-7, 10
    2    8 O      3, 8
    3    7 N      4, 9
    4    1 H      11-22

           -------------------------------------------------
          |                Calculation Setup                |
           -------------------------------------------------

          program call               : /app1/ebapps/arches/flat-avx2/software/ORCA/6.1.0-gompi-2023b-avx2/bin/otool_xtb o01-xtb-opt-freq_XTB.xyz --grad -c 0 -u 0 -P 8 --namespace o01-xtb-opt-freq --input o01-xtb-opt-freq_XTB.input.tmp --alpb WATER --acc 0.200000
          hostname                   : IN-006
          calculation namespace      : o01-xtb-opt-freq
          coordinate file            : o01-xtb-opt-freq_XTB.xyz
          omp threads                :                     8


           -------------------------------------------------
          |                 G F N 2 - x T B                 |
           -------------------------------------------------

        Reference                      10.1021/acs.jctc.8b01176
      * Hamiltonian:
        H0-scaling (s, p, d)           1.850000    2.230000    2.230000
        zeta-weighting                 0.500000
      * Dispersion:
        s8                             2.700000
        a1                             0.520000
        a2                             5.000000
        s9                             5.000000
      * Repulsion:
        kExp                           1.500000    1.000000
        rExp                           1.000000
      * Coulomb:
        alpha                          2.000000
        third order                    shell-resolved
        anisotropic                    true
        a3                             3.000000
        a5                             4.000000
        cn-shift                       1.200000
        cn-exp                         4.000000
        max-rad                        5.000000

      * Solvation model:               ALPB
        Solvent                        WATER
        Parameter file                 internal GFN2-xTB/ALPB
        Dielectric constant                8.0200E+01
        Reference state                gsolv [1 M gas/solution]
        Free energy shift                  1.0808E-03 Eh       6.7819E-01 kcal/mol
        Temperature                        2.9815E+02 K
        Density                            1.0000E+00 kg/L
        Solvent mass                       1.8000E+01 g/mol
        Interaction kernel             P16
        Born radius scaling (c1)           1.4744E+00
        Born radii integrator          GBOBC
        Born offset                        0.0000E+00 a0       0.0000E+00 AA
        H-bond correction              true
        Ion screening                  false
        Surface tension                    1.0000E-05 Eh       1.5569E+01 dyn/cm
        Grid points                               230 per atom
q/qsh data taken from xtbrestart
CAMM data taken from xtbrestart

          ...................................................
          :                      SETUP                      :
          :.................................................:
          :  # basis functions                  52          :
          :  # atomic orbitals                  52          :
          :  # shells                           32          :
          :  # electrons                        58          :
          :  max. iterations                   250          :
          :  Hamiltonian                  GFN2-xTB          :
          :  restarted?                       true          :
          :  GBSA solvation                   true          :
          :  PC potential                    false          :
          :  electronic temp.          300.0000000     K    :
          :  accuracy                    0.2000000          :
          :  -> integral cutoff          0.3198970E+02      :
          :  -> integral neglect         0.2000000E-08      :
          :  -> SCF convergence          0.2000000E-06 Eh   :
          :  -> wf. convergence          0.2000000E-04 e    :
          :  Broyden damping             0.4000000          :
          :  net charge                          0          :
          :  unpaired electrons                  0          :
          ...................................................

 iter      E             dE          RMSdq      gap      omega  full diag
   1    -33.3790136 -0.333790E+02  0.461E-02    4.59       0.0  T
   2    -33.3790141 -0.493275E-06  0.275E-02    4.59       1.0  T
   3    -33.3790142 -0.740921E-07  0.279E-03    4.59       7.6  T
   4    -33.3790142 -0.544392E-07  0.131E-03    4.59      16.3  T
   5    -33.3790142 -0.255292E-08  0.516E-04    4.59      41.3  T
   6    -33.3790142 -0.759606E-09  0.131E-04    4.59     162.4  T
   7    -33.3790142 -0.295444E-10  0.713E-05    4.59     299.1  T

   *** convergence criteria satisfied after 7 iterations ***

         #    Occupation            Energy/Eh            Energy/eV
      -------------------------------------------------------------
         1        2.0000           -0.7091543             -19.2971
       ...           ...                  ...                  ...
        23        2.0000           -0.4655618             -12.6686
        24        2.0000           -0.4622440             -12.5783
        25        2.0000           -0.4549252             -12.3791
        26        2.0000           -0.4331990             -11.7879
        27        2.0000           -0.4083645             -11.1122
        28        2.0000           -0.4028795             -10.9629
        29        2.0000           -0.3908920             -10.6367 (HOMO)
        30                         -0.2223047              -6.0492 (LUMO)
        31                         -0.2131641              -5.8005
        32                          0.0047810               0.1301
        33                          0.0074330               0.2023
        34                          0.0867611               2.3609
       ...                                ...                  ...
        52                          0.6061744              16.4948
      -------------------------------------------------------------
                  HL-Gap            0.1685874 Eh            4.5875 eV
             Fermi-level           -0.3065983 Eh           -8.3430 eV

 SCC (total)                   0 d,  0 h,  0 min,  0.010 sec
 SCC setup                      ...        0 min,  0.000 sec (  3.500%)
 Dispersion                     ...        0 min,  0.000 sec (  1.667%)
 classical contributions        ...        0 min,  0.000 sec (  0.199%)
 integral evaluation            ...        0 min,  0.001 sec (  7.023%)
 iterations                     ...        0 min,  0.007 sec ( 69.759%)
 molecular gradient             ...        0 min,  0.002 sec ( 16.497%)
 printout                       ...        0 min,  0.000 sec (  1.111%)

         :::::::::::::::::::::::::::::::::::::::::::::::::::::
         ::                     SUMMARY                     ::
         :::::::::::::::::::::::::::::::::::::::::::::::::::::
         :: total energy             -32.991258180702 Eh    ::
         :: total w/o Gsasa/hb       -32.988890910927 Eh    ::
         :: gradient norm              0.002364487353 Eh/a0 ::
         :: HOMO-LUMO gap              4.587495766848 eV    ::
         ::.................................................::
         :: SCC energy               -33.378909556188 Eh    ::
         :: -> isotropic ES            0.104308630671 Eh    ::
         :: -> anisotropic ES          0.001190202837 Eh    ::
         :: -> anisotropic XC          0.010724821631 Eh    ::
         :: -> dispersion             -0.015443209715 Eh    ::
         :: -> Gsolv                  -0.020304864820 Eh    ::
         ::    -> Gelec               -0.017937595044 Eh    ::
         ::    -> Gsasa                0.001578482356 Eh    ::
         ::    -> Ghb                 -0.005026511829 Eh    ::
         ::    -> Gshift               0.001080759698 Eh    ::
         :: repulsion energy           0.387651375487 Eh    ::
         :: add. restraining           0.000000000000 Eh    ::
         :: total charge               0.000000000000 e     ::
         :::::::::::::::::::::::::::::::::::::::::::::::::::::


Property printout bound to 'properties.out'

           -------------------------------------------------
          | TOTAL ENERGY              -32.991258180702 Eh   |
          | GRADIENT NORM               0.002364487353 Eh/α |
          | HOMO-LUMO GAP               4.587495766848 eV   |
           -------------------------------------------------

------------------------------------------------------------------------
 * finished run on 2026/09/28 at 23:19:03.973     
------------------------------------------------------------------------
 total:
 * wall-time:     0 d,  0 h,  0 min,  0.062 sec
 *  cpu-time:     0 d,  0 h,  0 min,  0.404 sec
 * ratio c/w:     6.517 speedup
 SCF:
 * wall-time:     0 d,  0 h,  0 min,  0.010 sec
 *  cpu-time:     0 d,  0 h,  0 min,  0.079 sec
 * ratio c/w:     7.710 speedup


-------------------------   --------------------
FINAL SINGLE POINT ENERGY       -32.991258180700
-------------------------   --------------------


-------------
DIPOLE MOMENT
-------------
                                X             Y             Z
Total Dipole Moment    :      1.10600       0.35000       0.78700
                        -----------------------------------------
Magnitude (a.u.)       :      1.40182
Magnitude (Debye)      :      3.56315


------------------
CARTESIAN GRADIENT
------------------

   1   C   :   -0.000059657   -0.000221252    0.000137914
   2   C   :    0.000081305    0.000152771   -0.000098977
   3   O   :   -0.000199272   -0.000119348    0.000055663
   4   N   :   -0.000056175   -0.000487139   -0.000572171
   5   C   :   -0.000223337    0.000816472    0.000526715
   6   C   :   -0.000294888    0.000398267   -0.000041647
   7   C   :    0.000868858    0.000090015   -0.000168488
   8   O   :   -0.000192850   -0.000167334    0.000109007
   9   N   :   -0.001168853    0.000313174   -0.000316872
  10   C   :   -0.000007482   -0.000078277   -0.000336124
  11   H   :   -0.000025962    0.000054014   -0.000079573
  12   H   :    0.000016324    0.000107374    0.000110131
  13   H   :    0.000164379   -0.000071115    0.000029091
  14   H   :    0.000083859    0.000226710    0.000102800
  15   H   :    0.000104774   -0.000098240   -0.000065292
  16   H   :    0.000179698   -0.000131356   -0.000042389
  17   H   :    0.000136569   -0.000198859    0.000003047
  18   H   :    0.000022815   -0.000224884    0.000050819
  19   H   :    0.000459262   -0.000531411    0.000276363
  20   H   :   -0.000082898    0.000056055    0.000006312
  21   H   :    0.000199618   -0.000117828    0.000140529
  22   H   :   -0.000006087    0.000232189    0.000173142

Difference to translation invariance:
           :    0.0000000000   -0.0000000000    0.0000000000

Difference to rotation invariance:
           :    0.0000725675    0.0000348872    0.0001257180

Norm of the Cartesian gradient     ...    0.0023644874
RMS gradient                       ...    0.0002910483
MAX gradient                       ...    0.0011688530
------------------------------------------------------------------------------
                         ORCA GEOMETRY RELAXATION STEP
------------------------------------------------------------------------------

Reading the OPT-File                    .... done
Getting information on internals        .... done
Copying old internal coords+grads       .... done
Making the new internal coordinates     .... (2022 redundants) done
Validating the new internal coordinates .... (2022 redundants) done
Calculating the B-matrix                .... done
Calculating the G,G- and P matrices     .... done
Transforming gradient to internals      .... done
Projecting the internal gradient        .... done
Number of atoms                         ....  22
Number of internal coordinates          ....  92
Current Energy                          ....   -32.991258181 Eh
Current gradient norm                   ....     0.002364487 Eh/bohr
Maximum allowed component of the step   ....  0.300
Current trust radius                    ....  0.700
Updating the Hessian (BFGS)             .... done
Forming the augmented Hessian           .... done
Diagonalizing the augmented Hessian     .... done
Last element of RFO vector              ....  0.997443424
Lowest eigenvalues of augmented Hessian:
 -0.000031591  0.001013911  0.004044322  0.010821321  0.011655086
Length of the computed step             ....  0.071643746
The final length of the internal step   ....  0.071643746
Converting the step to Cartesian space:
 Initial RMS(Int)=    0.0074693768
Transforming coordinates:
 Iter   0:  RMS(Cart)=    0.0133434876 RMS(Int)=    0.0074673178
done
Storing new coordinates                 .... done
The predicted energy change is          ....    -0.000015876
Previously predicted energy change      ....    -0.000042231
Actually observed energy change         ....    -0.000055057
Ratio of predicted to observed change   ....     1.303687555
New trust radius                        ....     0.700000000

                                .--------------------.
          ----------------------|Geometry convergence|-------------------------
          Item                value                   Tolerance       Converged
          ---------------------------------------------------------------------
          Energy change      -0.0000550566            0.0000050000      NO
          RMS gradient        0.0001790573            0.0001000000      NO
          MAX gradient        0.0008783501            0.0003000000      NO
          RMS step            0.0074693768            0.0020000000      NO
          MAX step            0.0297760350            0.0040000000      NO
          -------------------------------------------------------------------------
          ........................................................
          Max(Bonds)      0.0007      Max(Angles)    0.28
          Max(Dihed)        1.71      Max(Improp)    0.00
          ---------------------------------------------------------------------

The optimization has not yet converged - more geometry cycles are needed


    ---------------------------------------------------------------------------
                         Redundant Internal Coordinates
                            (Angstroem and degrees)

        Definition                    Value    dE/dq     Step     New-Value
    ----------------------------------------------------------------------------
     1. B(C   1,C   0)                1.5054  0.000125 -0.0003    1.5051   
     2. B(O   2,C   1)                1.2319 -0.000047  0.0003    1.2322   
     3. B(N   3,C   1)                1.3407 -0.000147  0.0002    1.3409   
     4. B(C   4,N   3)                1.4534 -0.000426  0.0007    1.4542   
     5. B(C   5,C   4)                1.5203  0.000152 -0.0000    1.5202   
     6. B(C   6,C   4)                1.5427 -0.000141  0.0006    1.5432   
     7. B(O   7,C   6)                1.2269  0.000277  0.0000    1.2270   
     8. B(N   8,C   6)                1.3344  0.000057 -0.0001    1.3343   
     9. B(C   9,N   8)                1.4449 -0.000059 -0.0000    1.4449   
    10. B(H  10,C   0)                1.0879 -0.000020  0.0002    1.0881   
    11. B(H  11,C   0)                1.0852 -0.000006  0.0000    1.0852   
    12. B(H  12,C   0)                1.0860  0.000014  0.0001    1.0861   
    13. B(H  13,N   3)                1.0090  0.000031  0.0001    1.0091   
    14. B(H  14,C   4)                1.0968  0.000075  0.0001    1.0969   
    15. B(H  15,C   5)                1.0859  0.000030  0.0000    1.0860   
    16. B(H  16,C   5)                1.0873 -0.000012  0.0001    1.0874   
    17. B(H  17,C   5)                1.0860  0.000068 -0.0002    1.0858   
    18. B(H  18,O   2)                2.0092  0.000024  0.0004    2.0095   
    19. B(H  18,N   8)                1.0158 -0.000023 -0.0000    1.0158   
    20. B(H  19,C   9)                1.0904  0.000053 -0.0000    1.0904   
    21. B(H  20,C   9)                1.0887  0.000009  0.0003    1.0890   
    22. B(H  21,C   9)                1.0886 -0.000116  0.0000    1.0886   
    23. A(H  11,C   0,H  12)          109.94 -0.000185    0.13    110.07   
    24. A(C   1,C   0,H  11)          111.13  0.000193   -0.11    111.02   
    25. A(C   1,C   0,H  12)          109.24  0.000067   -0.02    109.23   
    26. A(C   1,C   0,H  10)          108.90 -0.000081    0.04    108.94   
    27. A(H  10,C   0,H  12)          108.57  0.000039   -0.08    108.49   
    28. A(H  10,C   0,H  11)          109.02 -0.000036    0.03    109.05   
    29. A(O   2,C   1,N   3)          121.92 -0.000133    0.03    121.95   
    30. A(C   0,C   1,N   3)          115.04 -0.000197    0.04    115.08   
    31. A(C   0,C   1,O   2)          123.04  0.000330   -0.07    122.97   
    32. A(C   4,N   3,H  13)          116.91  0.000218   -0.11    116.79   
    33. A(C   1,N   3,C   4)          123.27  0.000050    0.03    123.30   
    34. A(C   1,N   3,H  13)          119.72 -0.000266    0.01    119.73   
    35. A(C   5,C   4,C   6)          111.15 -0.000149    0.03    111.18   
    36. A(N   3,C   4,C   5)          110.08 -0.000043    0.01    110.09   
    37. A(N   3,C   4,C   6)          109.77  0.000293   -0.05    109.72   
    38. A(C   6,C   4,H  14)          107.88  0.000068   -0.03    107.85   
    39. A(C   5,C   4,H  14)          110.86 -0.000095    0.12    110.98   
    40. A(N   3,C   4,H  14)          106.99 -0.000064   -0.09    106.90   
    41. A(H  16,C   5,H  17)          109.86 -0.000241    0.16    110.01   
    42. A(C   4,C   5,H  17)          110.50  0.000206   -0.08    110.42   
    43. A(H  15,C   5,H  16)          107.90 -0.000120    0.01    107.91   
    44. A(C   4,C   5,H  16)          109.91  0.000286   -0.15    109.76   
    45. A(C   4,C   5,H  15)          109.61  0.000105   -0.09    109.52   
    46. A(H  15,C   5,H  17)          109.02 -0.000247    0.16    109.17   
    47. A(O   7,C   6,N   8)          124.21 -0.000076    0.06    124.27   
    48. A(C   4,C   6,N   8)          113.29  0.000137    0.01    113.30   
    49. A(C   4,C   6,O   7)          122.50 -0.000061   -0.06    122.43   
    50. A(C   9,N   8,H  18)          118.23  0.000577   -0.20    118.03   
    51. A(C   6,N   8,H  18)          117.89 -0.000878    0.28    118.17   
    52. A(C   6,N   8,C   9)          123.34  0.000291   -0.07    123.27   
    53. A(N   8,C   9,H  19)          110.53  0.000099    0.03    110.55   
    54. A(H  20,C   9,H  21)          109.84  0.000169   -0.08    109.76   
    55. A(H  19,C   9,H  21)          109.20 -0.000183    0.07    109.27   
    56. A(N   8,C   9,H  21)          109.98  0.000279   -0.04    109.94   
    57. A(H  19,C   9,H  20)          109.48  0.000041    0.01    109.49   
    58. A(N   8,C   9,H  20)          107.80 -0.000402    0.02    107.81   
    59. D(O   2,C   1,C   0,H  10)    100.30 -0.000107    1.63    101.93   
    60. D(O   2,C   1,C   0,H  11)   -139.60 -0.000084    1.62   -137.98   
    61. D(N   3,C   1,C   0,H  11)     40.76 -0.000106    1.51     42.27   
    62. D(N   3,C   1,C   0,H  10)    -79.34 -0.000129    1.51    -77.83   
    63. D(O   2,C   1,C   0,H  12)    -18.12 -0.000146    1.71    -16.42   
    64. D(H  13,N   3,C   1,C   0)      5.25 -0.000014    0.35      5.60   
    65. D(C   4,N   3,C   1,C   0)   -178.66  0.000036   -0.25   -178.92   
    66. D(H  13,N   3,C   1,O   2)   -174.39 -0.000038    0.23   -174.15   
    67. D(C   4,N   3,C   1,O   2)      1.70  0.000012   -0.37      1.33   
    68. D(H  14,C   4,N   3,C   1)     34.48  0.000092    0.21     34.69   
    69. D(C   6,C   4,N   3,H  13)     93.86 -0.000076   -0.26     93.60   
    70. D(C   6,C   4,N   3,C   1)    -82.33 -0.000107    0.32    -82.01   
    71. D(C   5,C   4,N   3,H  13)    -28.80 -0.000055   -0.27    -29.07   
    72. D(C   5,C   4,N   3,C   1)    155.01 -0.000087    0.31    155.32   
    73. D(H  15,C   5,C   4,N   3)   -173.27  0.000212   -0.32   -173.59   
    74. D(H  16,C   5,C   4,H  14)   -173.53 -0.000041   -0.22   -173.75   
    75. D(H  16,C   5,C   4,C   6)    -53.55 -0.000118   -0.15    -53.70   
    76. D(H  16,C   5,C   4,N   3)     68.30  0.000124   -0.19     68.11   
    77. D(H  15,C   5,C   4,H  14)    -55.10  0.000048   -0.35    -55.45   
    78. D(H  15,C   5,C   4,C   6)     64.88 -0.000029   -0.28     64.60   
    79. D(N   8,C   6,C   4,C   5)   -164.27  0.000027    0.03   -164.24   
    80. D(N   8,C   6,C   4,N   3)     73.70 -0.000019    0.04     73.74   
    81. D(O   7,C   6,C   4,H  14)    137.58 -0.000100    0.23    137.80   
    82. D(O   7,C   6,C   4,C   5)     15.84  0.000065    0.07     15.92   
    83. D(O   7,C   6,C   4,N   3)   -106.18  0.000019    0.08   -106.10   
    84. D(H  18,N   8,C   6,O   7)    174.49 -0.000008    0.09    174.57   
    85. D(H  18,N   8,C   6,C   4)     -5.40  0.000031    0.13     -5.27   
    86. D(C   9,N   8,C   6,O   7)      3.09  0.000030   -0.36      2.73   
    87. D(C   9,N   8,C   6,C   4)   -176.79  0.000069   -0.32   -177.11   
    88. D(H  19,C   9,N   8,H  18)    -59.01 -0.000006   -0.91    -59.92   
    89. D(H  19,C   9,N   8,C   6)    112.36 -0.000161   -0.45    111.91   
    90. D(H  21,C   9,N   8,C   6)   -126.99 -0.000145   -0.37   -127.36   
    91. D(H  20,C   9,N   8,H  18)   -178.62  0.000134   -0.94   -179.56   
    92. D(H  20,C   9,N   8,C   6)     -7.25 -0.000022   -0.49     -7.74   
    ----------------------------------------------------------------------------

Geometry step timings:
Preparation and reading OPT file:      0.001 s ( 3.485 %)
Internal coordinates            :      0.000 s ( 0.191 %)
B/P matrices and projection     :      0.003 s ( 7.505 %)
Hessian update/contruction      :      0.016 s (48.758 %)
Making the step                 :      0.002 s ( 6.561 %)
Converting the step to Cartesian:      0.000 s ( 0.572 %)
Storing new data                :      0.005 s (15.347 %)
Checking convergence            :      0.000 s ( 0.274 %)
Final printing                  :      0.006 s (17.298 %)
Total time                      :      0.034 s

Time for energy+gradient        :      0.152 s
Time for complete geometry iter :      0.217 s

         *************************************************************
         *                GEOMETRY OPTIMIZATION CYCLE  13            *
         *************************************************************
---------------------------------
CARTESIAN COORDINATES (ANGSTROEM)
---------------------------------
  C     2.235185    1.755663    1.161932
  C     1.447508    1.034318    0.101509
  O     1.170680    1.538961   -0.988015
  N     1.058463   -0.206665    0.427965
  C     0.309244   -1.070565   -0.470243
  C     0.539727   -2.528377   -0.105831
  C    -1.190098   -0.710533   -0.408650
  O    -2.013989   -1.418306    0.162028
  N    -1.483810    0.433688   -1.029080
  C    -2.810557    1.005475   -1.051985
  H     1.549695    2.120376    1.924187
  H     2.960657    1.094673    1.625073
  H     2.739032    2.607961    0.715543
  H     1.225999   -0.554983    1.360102
  H     0.664446   -0.858886   -1.486233
  H     0.069659   -3.166648   -0.848099
  H     0.083009   -2.743168    0.857368
  H     1.602817   -2.746378   -0.069908
  H    -0.717927    0.988970   -1.399265
  H    -2.839550    1.928692   -0.472498
  H    -3.493788    0.279667   -0.613388
  H    -3.106400    1.216065   -2.078250

----------------------------
CARTESIAN COORDINATES (A.U.)
----------------------------
  NO LB    ZA    FRAG    MASS        X           Y           Z
   0 C   6.0000    0    12.011    4.223888    3.317722    2.195732
   1 C   6.0000    0    12.011    2.735394    1.954577    0.191824
   2 O   8.0000    0    15.999    2.212264    2.908215   -1.867077
   3 N   7.0000    0    14.007    2.000206   -0.390541    0.808736
   4 C   6.0000    0    12.011    0.584387   -2.023074   -0.888630
   5 C   6.0000    0    12.011    1.019936   -4.777941   -0.199992
   6 C   6.0000    0    12.011   -2.248959   -1.342712   -0.772236
   7 O   8.0000    0    15.999   -3.805888   -2.680209    0.306189
   8 N   7.0000    0    14.007   -2.803994    0.819551   -1.944680
   9 C   6.0000    0    12.011   -5.311183    1.900073   -1.987963
  10 H   1.0000    0     1.008    2.928499    4.006930    3.636187
  11 H   1.0000    0     1.008    5.594831    2.068632    3.070944
  12 H   1.0000    0     1.008    5.176020    4.928331    1.352181
  13 H   1.0000    0     1.008    2.316802   -1.048766    2.570220
  14 H   1.0000    0     1.008    1.255621   -1.623059   -2.808574
  15 H   1.0000    0     1.008    0.131637   -5.984097   -1.602675
  16 H   1.0000    0     1.008    0.156865   -5.183836    1.620190
  17 H   1.0000    0     1.008    3.028886   -5.189902   -0.132106
  18 H   1.0000    0     1.008   -1.356685    1.868882   -2.644229
  19 H   1.0000    0     1.008   -5.365971    3.644700   -0.892892
  20 H   1.0000    0     1.008   -6.602303    0.528494   -1.159135
  21 H   1.0000    0     1.008   -5.870245    2.298029   -3.927323

      -----------------------------------------------------------      
     |                   =====================                   |     
     |                           x T B                           |     
     |                   =====================                   |     
     |                         S. Grimme                         |     
     |          Mulliken Center for Theoretical Chemistry        |     
     |                    University of Bonn                     |     
      -----------------------------------------------------------      

   * xtb version 6.7.1 (edcfbbe) compiled by 'albert@albert-system' on 2024-07-22

   xtb is free software: you can redistribute it and/or modify it under
   the terms of the GNU Lesser General Public License as published by
   the Free Software Foundation, either version 3 of the License, or
   (at your option) any later version.
   
   xtb is distributed in the hope that it will be useful,
   but WITHOUT ANY WARRANTY; without even the implied warranty of
   MERCHANTABILITY or FITNESS FOR A PARTICULAR PURPOSE.  See the
   GNU Lesser General Public License for more details.
   
   Cite this work as:
   * C. Bannwarth, E. Caldeweyher, S. Ehlert, A. Hansen, P. Pracht,
     J. Seibert, S. Spicher, S. Grimme, WIREs Comput. Mol. Sci., 2020, 11,
     e01493. DOI: 10.1002/wcms.1493
   
   for GFN2-xTB:
   * C. Bannwarth, S. Ehlert and S. Grimme., J. Chem. Theory Comput., 2019,
     15, 1652-1671. DOI: 10.1021/acs.jctc.8b01176
   for GFN1-xTB:
   * S. Grimme, C. Bannwarth, P. Shushkov, J. Chem. Theory Comput., 2017,
     13, 1989-2009. DOI: 10.1021/acs.jctc.7b00118
   for GFN0-xTB:
   * P. Pracht, E. Caldeweyher, S. Ehlert, S. Grimme, ChemRxiv, 2019, preprint.
     DOI: 10.26434/chemrxiv.8326202.v1
   for GFN-FF:
   * S. Spicher and S. Grimme, Angew. Chem. Int. Ed., 2020, 59, 15665-15673.
     DOI: 10.1002/anie.202004239
   
   for ALPB and GBSA implicit solvation:
   * S. Ehlert, M. Stahn, S. Spicher, S. Grimme, J. Chem. Theory Comput.,
     2021, 17, 4250-4261. DOI: 10.1021/acs.jctc.1c00471
   
   for ddCOSMO and CPCM-X implicit solvation:
   * M. Stahn, S. Ehlert, S. Grimme, J. Phys. Chem. A,
     2023, XX, XXXX-XXXX. DOI: 10.1021/acs.jpca.3c04382
   
   for DFT-D4:
   * E. Caldeweyher, C. Bannwarth and S. Grimme, J. Chem. Phys., 2017,
     147, 034112. DOI: 10.1063/1.4993215
   * E. Caldeweyher, S. Ehlert, A. Hansen, H. Neugebauer, S. Spicher,
     C. Bannwarth and S. Grimme, J. Chem. Phys., 2019, 150, 154122.
     DOI: 10.1063/1.5090222
   * E. Caldeweyher, J.-M. Mewes, S. Ehlert and S. Grimme, Phys. Chem. Chem. Phys.
     2020, 22, 8499-8512. DOI: 10.1039/D0CP00502A
   
   for sTDA-xTB:
   * S. Grimme and C. Bannwarth, J. Chem. Phys., 2016, 145, 054103.
     DOI: 10.1063/1.4959605
   
   in the mass-spec context:
   * V. Asgeirsson, C. Bauer and S. Grimme, Chem. Sci., 2017, 8, 4879.
     DOI: 10.1039/c7sc00601b
   * J. Koopman and S. Grimme, ACS Omega 2019, 4, 12, 15120-15133.
     DOI: 10.1021/acsomega.9b02011
   
   for metadynamics refer to:
   * S. Grimme, J. Chem. Theory Comput., 2019, 155, 2847-2862
     DOI: 10.1021/acs.jctc.9b00143
   
   for SPH calculations refer to:
   * S. Spicher and S. Grimme, J. Chem. Theory Comput., 2021, 17, 1701-1714
     DOI: 10.1021/acs.jctc.0c01306
   
   for ONIOM refer to:
   * C. Plett, A. Katbashev, S. Ehlert, S. Grimme, M. Bursch,
     Phys. Chem. Chem. Phys., 2023, 25, 17860-17868. DOI: 10.1039/D3CP02178E
   
   for DIPRO refer to:
   * J. Kohn, N. Gildemeister, S. Grimme, D. Fazzi, A. Hansen,
     J. Chem. Phys., 2023, just accepted.
   
   for PTB refer to:
   * S. Grimme, M. Mueller, A. Hansen, J. Chem. Phys., 2023, 158, 124111.
     DOI: 10.1063/5.0137838
   
   with help from (in alphabetical order)
   P. Atkinson, C. Bannwarth, F. Bohle, G. Brandenburg, E. Caldeweyher
   M. Checinski, S. Dohm, S. Ehlert, S. Ehrlich, I. Gerasimov, C. Hölzer
   A. Katbashev, J. Kohn, J. Koopman, C. Lavigne, S. Lehtola, F. März, M. Müller,
   F. Musil, H. Neugebauer, J. Pisarek, C. Plett, P. Pracht, F. Pultar,
   J. Seibert, P. Shushkov, S. Spicher, M. Stahn, M. Steiner, T. Strunk,
   J. Stückrath, T. Rose, and J. Unsleber
   
 * started run on 2026/09/28 at 23:19:04.126     
   ID    Z sym.   atoms
    1    6 C      1, 2, 5-7, 10
    2    8 O      3, 8
    3    7 N      4, 9
    4    1 H      11-22

           -------------------------------------------------
          |                Calculation Setup                |
           -------------------------------------------------

          program call               : /app1/ebapps/arches/flat-avx2/software/ORCA/6.1.0-gompi-2023b-avx2/bin/otool_xtb o01-xtb-opt-freq_XTB.xyz --grad -c 0 -u 0 -P 8 --namespace o01-xtb-opt-freq --input o01-xtb-opt-freq_XTB.input.tmp --alpb WATER --acc 0.200000
          hostname                   : IN-006
          calculation namespace      : o01-xtb-opt-freq
          coordinate file            : o01-xtb-opt-freq_XTB.xyz
          omp threads                :                     8


           -------------------------------------------------
          |                 G F N 2 - x T B                 |
           -------------------------------------------------

        Reference                      10.1021/acs.jctc.8b01176
      * Hamiltonian:
        H0-scaling (s, p, d)           1.850000    2.230000    2.230000
        zeta-weighting                 0.500000
      * Dispersion:
        s8                             2.700000
        a1                             0.520000
        a2                             5.000000
        s9                             5.000000
      * Repulsion:
        kExp                           1.500000    1.000000
        rExp                           1.000000
      * Coulomb:
        alpha                          2.000000
        third order                    shell-resolved
        anisotropic                    true
        a3                             3.000000
        a5                             4.000000
        cn-shift                       1.200000
        cn-exp                         4.000000
        max-rad                        5.000000

      * Solvation model:               ALPB
        Solvent                        WATER
        Parameter file                 internal GFN2-xTB/ALPB
        Dielectric constant                8.0200E+01
        Reference state                gsolv [1 M gas/solution]
        Free energy shift                  1.0808E-03 Eh       6.7819E-01 kcal/mol
        Temperature                        2.9815E+02 K
        Density                            1.0000E+00 kg/L
        Solvent mass                       1.8000E+01 g/mol
        Interaction kernel             P16
        Born radius scaling (c1)           1.4744E+00
        Born radii integrator          GBOBC
        Born offset                        0.0000E+00 a0       0.0000E+00 AA
        H-bond correction              true
        Ion screening                  false
        Surface tension                    1.0000E-05 Eh       1.5569E+01 dyn/cm
        Grid points                               230 per atom
q/qsh data taken from xtbrestart
CAMM data taken from xtbrestart

          ...................................................
          :                      SETUP                      :
          :.................................................:
          :  # basis functions                  52          :
          :  # atomic orbitals                  52          :
          :  # shells                           32          :
          :  # electrons                        58          :
          :  max. iterations                   250          :
          :  Hamiltonian                  GFN2-xTB          :
          :  restarted?                       true          :
          :  GBSA solvation                   true          :
          :  PC potential                    false          :
          :  electronic temp.          300.0000000     K    :
          :  accuracy                    0.2000000          :
          :  -> integral cutoff          0.3198970E+02      :
          :  -> integral neglect         0.2000000E-08      :
          :  -> SCF convergence          0.2000000E-06 Eh   :
          :  -> wf. convergence          0.2000000E-04 e    :
          :  Broyden damping             0.4000000          :
          :  net charge                          0          :
          :  unpaired electrons                  0          :
          ...................................................

 iter      E             dE          RMSdq      gap      omega  full diag
   1    -33.3787978 -0.333788E+02  0.290E-02    4.58       0.0  T
   2    -33.3787979 -0.124765E-06  0.173E-02    4.58       1.2  T
   3    -33.3787979 -0.274905E-07  0.128E-03    4.58      16.6  T
   4    -33.3787980 -0.769334E-08  0.656E-04    4.58      32.5  T
   5    -33.3787980 -0.383267E-09  0.241E-04    4.58      88.4  T
   6    -33.3787980 -0.180563E-09  0.604E-05    4.58     352.8  T
   7    -33.3787980 -0.790124E-11  0.345E-05    4.58     617.1  T

   *** convergence criteria satisfied after 7 iterations ***

         #    Occupation            Energy/Eh            Energy/eV
      -------------------------------------------------------------
         1        2.0000           -0.7090150             -19.2933
       ...           ...                  ...                  ...
        23        2.0000           -0.4655658             -12.6687
        24        2.0000           -0.4622475             -12.5784
        25        2.0000           -0.4549231             -12.3791
        26        2.0000           -0.4332339             -11.7889
        27        2.0000           -0.4082801             -11.1099
        28        2.0000           -0.4029292             -10.9643
        29        2.0000           -0.3908399             -10.6353 (HOMO)
        30                         -0.2224292              -6.0526 (LUMO)
        31                         -0.2131246              -5.7994
        32                          0.0045312               0.1233
        33                          0.0073510               0.2000
        34                          0.0865022               2.3538
       ...                                ...                  ...
        52                          0.6060900              16.4925
      -------------------------------------------------------------
                  HL-Gap            0.1684107 Eh            4.5827 eV
             Fermi-level           -0.3066345 Eh           -8.3440 eV

 SCC (total)                   0 d,  0 h,  0 min,  0.010 sec
 SCC setup                      ...        0 min,  0.000 sec (  3.982%)
 Dispersion                     ...        0 min,  0.000 sec (  1.536%)
 classical contributions        ...        0 min,  0.000 sec (  0.194%)
 integral evaluation            ...        0 min,  0.001 sec (  7.153%)
 iterations                     ...        0 min,  0.007 sec ( 68.921%)
 molecular gradient             ...        0 min,  0.002 sec ( 16.885%)
 printout                       ...        0 min,  0.000 sec (  1.037%)

         :::::::::::::::::::::::::::::::::::::::::::::::::::::
         ::                     SUMMARY                     ::
         :::::::::::::::::::::::::::::::::::::::::::::::::::::
         :: total energy             -32.991279897251 Eh    ::
         :: total w/o Gsasa/hb       -32.988907185812 Eh    ::
         :: gradient norm              0.001715401678 Eh/a0 ::
         :: HOMO-LUMO gap              4.582688999501 eV    ::
         ::.................................................::
         :: SCC energy               -33.378693067797 Eh    ::
         :: -> isotropic ES            0.104323692261 Eh    ::
         :: -> anisotropic ES          0.001161359445 Eh    ::
         :: -> anisotropic XC          0.010756068654 Eh    ::
         :: -> dispersion             -0.015445330592 Eh    ::
         :: -> Gsolv                  -0.020310892539 Eh    ::
         ::    -> Gelec               -0.017938181100 Eh    ::
         ::    -> Gsasa                0.001578507420 Eh    ::
         ::    -> Ghb                 -0.005031978557 Eh    ::
         ::    -> Gshift               0.001080759698 Eh    ::
         :: repulsion energy           0.387413170546 Eh    ::
         :: add. restraining           0.000000000000 Eh    ::
         :: total charge               0.000000000000 e     ::
         :::::::::::::::::::::::::::::::::::::::::::::::::::::


Property printout bound to 'properties.out'

           -------------------------------------------------
          | TOTAL ENERGY              -32.991279897251 Eh   |
          | GRADIENT NORM               0.001715401678 Eh/α |
          | HOMO-LUMO GAP               4.582688999501 eV   |
           -------------------------------------------------

------------------------------------------------------------------------
 * finished run on 2026/09/28 at 23:19:04.187     
------------------------------------------------------------------------
 total:
 * wall-time:     0 d,  0 h,  0 min,  0.060 sec
 *  cpu-time:     0 d,  0 h,  0 min,  0.387 sec
 * ratio c/w:     6.465 speedup
 SCF:
 * wall-time:     0 d,  0 h,  0 min,  0.010 sec
 *  cpu-time:     0 d,  0 h,  0 min,  0.079 sec
 * ratio c/w:     7.904 speedup


-------------------------   --------------------
FINAL SINGLE POINT ENERGY       -32.991279897250
-------------------------   --------------------


-------------
DIPOLE MOMENT
-------------
                                X             Y             Z
Total Dipole Moment    :      1.10000       0.34500       0.77900
                        -----------------------------------------
Magnitude (a.u.)       :      1.39135
Magnitude (Debye)      :      3.53654


------------------
CARTESIAN GRADIENT
------------------

   1   C   :    0.000242101   -0.000379826   -0.000083861
   2   C   :    0.000205839    0.000071210    0.000442363
   3   O   :   -0.000203717    0.000147459   -0.000210767
   4   N   :    0.000159381   -0.000351330   -0.000561970
   5   C   :   -0.000306341    0.000073678    0.000527864
   6   C   :    0.000092656   -0.000147023    0.000043358
   7   C   :    0.000276521    0.000217646   -0.000192754
   8   O   :   -0.000095434   -0.000351177    0.000248046
   9   N   :   -0.000670710    0.000290863   -0.000155224
  10   C   :    0.000266898    0.000157151   -0.000315490
  11   H   :   -0.000113363    0.000243154   -0.000084009
  12   H   :   -0.000078663   -0.000046696    0.000073001
  13   H   :   -0.000042529    0.000151839    0.000026814
  14   H   :   -0.000018752    0.000109180    0.000145095
  15   H   :    0.000122369    0.000101341   -0.000079699
  16   H   :   -0.000017566   -0.000010994   -0.000094936
  17   H   :   -0.000071018    0.000011047    0.000026328
  18   H   :    0.000042353    0.000018248   -0.000024204
  19   H   :    0.000218874   -0.000195179    0.000024260
  20   H   :   -0.000046983    0.000041183    0.000055349
  21   H   :    0.000076241   -0.000256379    0.000068571
  22   H   :   -0.000038158    0.000104604    0.000121865

Difference to translation invariance:
           :   -0.0000000000   -0.0000000000    0.0000000000

Difference to rotation invariance:
           :    0.0000581524    0.0000179062    0.0000905949

Norm of the Cartesian gradient     ...    0.0017154017
RMS gradient                       ...    0.0002111514
MAX gradient                       ...    0.0006707096
------------------------------------------------------------------------------
                         ORCA GEOMETRY RELAXATION STEP
------------------------------------------------------------------------------

Reading the OPT-File                    .... done
Getting information on internals        .... done
Copying old internal coords+grads       .... done
Making the new internal coordinates     .... (2022 redundants) done
Validating the new internal coordinates .... (2022 redundants) done
Calculating the B-matrix                .... done
Calculating the G,G- and P matrices     .... done
Transforming gradient to internals      .... done
Projecting the internal gradient        .... done
Number of atoms                         ....  22
Number of internal coordinates          ....  92
Current Energy                          ....   -32.991279897 Eh
Current gradient norm                   ....     0.001715402 Eh/bohr
Maximum allowed component of the step   ....  0.300
Current trust radius                    ....  0.700
Updating the Hessian (BFGS)             .... done
Forming the augmented Hessian           .... done
Diagonalizing the augmented Hessian     .... done
Last element of RFO vector              ....  0.998163905
Lowest eigenvalues of augmented Hessian:
 -0.000018782  0.000987185  0.003620881  0.007866293  0.011285512
Length of the computed step             ....  0.060682192
The final length of the internal step   ....  0.060682192
Converting the step to Cartesian space:
 Initial RMS(Int)=    0.0063265559
Transforming coordinates:
 Iter   0:  RMS(Cart)=    0.0115056932 RMS(Int)=    0.0063253576
done
Storing new coordinates                 .... done
The predicted energy change is          ....    -0.000009426
Previously predicted energy change      ....    -0.000015876
Actually observed energy change         ....    -0.000021717
Ratio of predicted to observed change   ....     1.367848221
New trust radius                        ....     0.700000000

                                .--------------------.
          ----------------------|Geometry convergence|-------------------------
          Item                value                   Tolerance       Converged
          ---------------------------------------------------------------------
          Energy change      -0.0000217166            0.0000050000      NO
          RMS gradient        0.0001214562            0.0001000000      NO
          MAX gradient        0.0003856520            0.0003000000      NO
          RMS step            0.0063265559            0.0020000000      NO
          MAX step            0.0268238520            0.0040000000      NO
          -------------------------------------------------------------------------
          ........................................................
          Max(Bonds)      0.0006      Max(Angles)    0.23
          Max(Dihed)        1.54      Max(Improp)    0.00
          ---------------------------------------------------------------------

The optimization has not yet converged - more geometry cycles are needed


    ---------------------------------------------------------------------------
                         Redundant Internal Coordinates
                            (Angstroem and degrees)

        Definition                    Value    dE/dq     Step     New-Value
    ----------------------------------------------------------------------------
     1. B(C   1,C   0)                1.5051 -0.000060 -0.0001    1.5050   
     2. B(O   2,C   1)                1.2322  0.000297  0.0000    1.2323   
     3. B(N   3,C   1)                1.3409  0.000128 -0.0000    1.3409   
     4. B(C   4,N   3)                1.4541 -0.000126  0.0006    1.4547   
     5. B(C   5,C   4)                1.5202  0.000120 -0.0002    1.5201   
     6. B(C   6,C   4)                1.5432 -0.000007  0.0004    1.5436   
     7. B(O   7,C   6)                1.2270  0.000382 -0.0002    1.2268   
     8. B(N   8,C   6)                1.3343  0.000261 -0.0002    1.3341   
     9. B(C   9,N   8)                1.4449 -0.000218  0.0003    1.4452   
    10. B(H  10,C   0)                1.0881  0.000093  0.0000    1.0881   
    11. B(H  11,C   0)                1.0852  0.000007  0.0000    1.0853   
    12. B(H  12,C   0)                1.0861  0.000089 -0.0001    1.0860   
    13. B(H  13,N   3)                1.0091  0.000093 -0.0000    1.0090   
    14. B(H  14,C   4)                1.0969  0.000132 -0.0002    1.0967   
    15. B(H  15,C   5)                1.0860  0.000079 -0.0001    1.0859   
    16. B(H  16,C   5)                1.0874  0.000053 -0.0000    1.0874   
    17. B(H  17,C   5)                1.0858  0.000036 -0.0002    1.0857   
    18. B(H  18,O   2)                2.0096  0.000016 -0.0006    2.0090   
    19. B(H  18,N   8)                1.0159  0.000063 -0.0000    1.0158   
    20. B(H  19,C   9)                1.0904  0.000066 -0.0001    1.0903   
    21. B(H  20,C   9)                1.0890  0.000149 -0.0000    1.0890   
    22. B(H  21,C   9)                1.0886 -0.000083  0.0002    1.0888   
    23. A(H  11,C   0,H  12)          110.08  0.000083    0.04    110.12   
    24. A(C   1,C   0,H  11)          111.02  0.000048   -0.08    110.93   
    25. A(C   1,C   0,H  12)          109.23  0.000054   -0.02    109.21   
    26. A(C   1,C   0,H  10)          108.94 -0.000108    0.05    108.99   
    27. A(H  10,C   0,H  12)          108.49 -0.000159    0.02    108.51   
    28. A(H  10,C   0,H  11)          109.05  0.000075   -0.01    109.04   
    29. A(O   2,C   1,N   3)          121.95 -0.000088    0.03    121.97   
    30. A(C   0,C   1,N   3)          115.08  0.000077    0.02    115.09   
    31. A(C   0,C   1,O   2)          122.97  0.000011   -0.04    122.93   
    32. A(C   4,N   3,H  13)          116.81  0.000070   -0.06    116.75   
    33. A(C   1,N   3,C   4)          123.30  0.000081    0.01    123.30   
    34. A(C   1,N   3,H  13)          119.75 -0.000155    0.07    119.82   
    35. A(C   5,C   4,C   6)          111.19 -0.000073    0.02    111.21   
    36. A(N   3,C   4,C   5)          110.09  0.000045   -0.02    110.08   
    37. A(N   3,C   4,C   6)          109.71  0.000146   -0.10    109.61   
    38. A(C   6,C   4,H  14)          107.85  0.000009   -0.01    107.84   
    39. A(C   5,C   4,H  14)          110.98  0.000022    0.09    111.07   
    40. A(N   3,C   4,H  14)          106.90 -0.000150    0.02    106.91   
    41. A(H  16,C   5,H  17)          110.01  0.000058    0.08    110.09   
    42. A(C   4,C   5,H  17)          110.42 -0.000024   -0.04    110.38   
    43. A(H  15,C   5,H  16)          107.91  0.000036   -0.00    107.91   
    44. A(C   4,C   5,H  16)          109.76 -0.000024   -0.08    109.68   
    45. A(C   4,C   5,H  15)          109.52 -0.000062   -0.04    109.48   
    46. A(H  15,C   5,H  17)          109.17  0.000017    0.09    109.26   
    47. A(O   7,C   6,N   8)          124.27  0.000227    0.01    124.28   
    48. A(C   4,C   6,N   8)          113.29  0.000050   -0.02    113.27   
    49. A(C   4,C   6,O   7)          122.44 -0.000277    0.01    122.44   
    50. A(C   9,N   8,H  18)          118.05  0.000241   -0.17    117.87   
    51. A(C   6,N   8,H  18)          118.18 -0.000333    0.23    118.41   
    52. A(C   6,N   8,C   9)          123.29  0.000088   -0.05    123.24   
    53. A(N   8,C   9,H  19)          110.55  0.000078   -0.00    110.55   
    54. A(H  20,C   9,H  21)          109.76  0.000079   -0.07    109.69   
    55. A(H  19,C   9,H  21)          109.27 -0.000083    0.05    109.32   
    56. A(N   8,C   9,H  21)          109.94  0.000219   -0.08    109.86   
    57. A(H  19,C   9,H  20)          109.49  0.000091    0.00    109.49   
    58. A(N   8,C   9,H  20)          107.82 -0.000386    0.10    107.91   
    59. D(O   2,C   1,C   0,H  10)    101.93 -0.000181    1.54    103.46   
    60. D(O   2,C   1,C   0,H  11)   -137.98 -0.000128    1.51   -136.48   
    61. D(N   3,C   1,C   0,H  11)     42.27 -0.000087    1.42     43.69   
    62. D(N   3,C   1,C   0,H  10)    -77.82 -0.000139    1.45    -76.37   
    63. D(O   2,C   1,C   0,H  12)    -16.42  0.000043    1.49    -14.93   
    64. D(H  13,N   3,C   1,C   0)      5.60  0.000005    0.05      5.66   
    65. D(C   4,N   3,C   1,C   0)   -178.91 -0.000050   -0.03   -178.95   
    66. D(H  13,N   3,C   1,O   2)   -174.15  0.000045   -0.03   -174.18   
    67. D(C   4,N   3,C   1,O   2)      1.33 -0.000009   -0.11      1.22   
    68. D(H  14,C   4,N   3,C   1)     34.69  0.000024    0.10     34.79   
    69. D(C   6,C   4,N   3,H  13)     93.60 -0.000043    0.08     93.68   
    70. D(C   6,C   4,N   3,C   1)    -82.00  0.000020    0.15    -81.85   
    71. D(C   5,C   4,N   3,H  13)    -29.07 -0.000078    0.13    -28.94   
    72. D(C   5,C   4,N   3,C   1)    155.32 -0.000015    0.21    155.53   
    73. D(H  15,C   5,C   4,N   3)   -173.59  0.000120   -0.38   -173.97   
    74. D(H  16,C   5,C   4,H  14)   -173.75 -0.000016   -0.24   -173.99   
    75. D(H  16,C   5,C   4,C   6)    -53.70 -0.000039   -0.18    -53.88   
    76. D(H  16,C   5,C   4,N   3)     68.11  0.000128   -0.31     67.80   
    77. D(H  15,C   5,C   4,H  14)    -55.45 -0.000024   -0.31    -55.76   
    78. D(H  15,C   5,C   4,C   6)     64.60 -0.000047   -0.25     64.35   
    79. D(N   8,C   6,C   4,C   5)   -164.24  0.000051   -0.10   -164.34   
    80. D(N   8,C   6,C   4,N   3)     73.73 -0.000057   -0.02     73.71   
    81. D(O   7,C   6,C   4,H  14)    137.80  0.000044    0.03    137.83   
    82. D(O   7,C   6,C   4,C   5)     15.92  0.000056   -0.09     15.83   
    83. D(O   7,C   6,C   4,N   3)   -106.11 -0.000052   -0.01   -106.12   
    84. D(H  18,N   8,C   6,O   7)    174.56 -0.000004    0.04    174.60   
    85. D(H  18,N   8,C   6,C   4)     -5.28  0.000002    0.05     -5.22   
    86. D(C   9,N   8,C   6,O   7)      2.74  0.000012   -0.26      2.48   
    87. D(C   9,N   8,C   6,C   4)   -177.10  0.000019   -0.25   -177.35   
    88. D(H  19,C   9,N   8,H  18)    -59.92 -0.000073   -0.22    -60.14   
    89. D(H  19,C   9,N   8,C   6)    111.91 -0.000133    0.10    112.01   
    90. D(H  21,C   9,N   8,C   6)   -127.36 -0.000043    0.11   -127.25   
    91. D(H  20,C   9,N   8,H  18)   -179.57  0.000007   -0.28   -179.85   
    92. D(H  20,C   9,N   8,C   6)     -7.73 -0.000053    0.04     -7.70   
    ----------------------------------------------------------------------------

Geometry step timings:
Preparation and reading OPT file:      0.001 s ( 3.542 %)
Internal coordinates            :      0.000 s ( 0.188 %)
B/P matrices and projection     :      0.002 s ( 7.296 %)
Hessian update/contruction      :      0.017 s (48.851 %)
Making the step                 :      0.002 s ( 6.634 %)
Converting the step to Cartesian:      0.000 s ( 0.538 %)
Storing new data                :      0.005 s (16.073 %)
Checking convergence            :      0.000 s ( 0.250 %)
Final printing                  :      0.006 s (16.620 %)
Total time                      :      0.034 s

Time for energy+gradient        :      0.151 s
Time for complete geometry iter :      0.215 s

         *************************************************************
         *                GEOMETRY OPTIMIZATION CYCLE  14            *
         *************************************************************
---------------------------------
CARTESIAN COORDINATES (ANGSTROEM)
---------------------------------
  C     2.234514    1.755742    1.162008
  C     1.446907    1.033985    0.101895
  O     1.170412    1.539055   -0.987539
  N     1.059446   -0.207623    0.427816
  C     0.309683   -1.072108   -0.470430
  C     0.538404   -2.529456   -0.103697
  C    -1.189408   -0.709331   -0.407791
  O    -2.014003   -1.415333    0.163683
  N    -1.481403    0.435143   -1.028146
  C    -2.808776    1.006026   -1.053999
  H     1.552997    2.097282    1.938445
  H     2.977532    1.101131    1.606078
  H     2.716739    2.622930    0.720598
  H     1.226855   -0.556961    1.359545
  H     0.664391   -0.860922   -1.486503
  H     0.062464   -3.167723   -0.842127
  H     0.084805   -2.739531    0.862009
  H     1.601139   -2.749095   -0.072249
  H    -0.717689    0.991477   -1.401000
  H    -2.839503    1.929530   -0.475250
  H    -3.493838    0.280762   -0.617481
  H    -3.101663    1.215020   -2.081602

----------------------------
CARTESIAN COORDINATES (A.U.)
----------------------------
  NO LB    ZA    FRAG    MASS        X           Y           Z
   0 C   6.0000    0    12.011    4.222619    3.317872    2.195876
   1 C   6.0000    0    12.011    2.734258    1.953948    0.192553
   2 O   8.0000    0    15.999    2.211758    2.908392   -1.866178
   3 N   7.0000    0    14.007    2.002062   -0.392351    0.808454
   4 C   6.0000    0    12.011    0.585216   -2.025990   -0.888983
   5 C   6.0000    0    12.011    1.017435   -4.779978   -0.195958
   6 C   6.0000    0    12.011   -2.247656   -1.340441   -0.770613
   7 O   8.0000    0    15.999   -3.805914   -2.674592    0.309316
   8 N   7.0000    0    14.007   -2.799445    0.822300   -1.942915
   9 C   6.0000    0    12.011   -5.307818    1.901114   -1.991769
  10 H   1.0000    0     1.008    2.934739    3.963288    3.663130
  11 H   1.0000    0     1.008    5.626720    2.080836    3.035047
  12 H   1.0000    0     1.008    5.133892    4.956619    1.361734
  13 H   1.0000    0     1.008    2.318419   -1.052504    2.569167
  14 H   1.0000    0     1.008    1.255517   -1.626907   -2.809083
  15 H   1.0000    0     1.008    0.118040   -5.986129   -1.591390
  16 H   1.0000    0     1.008    0.160259   -5.176964    1.628961
  17 H   1.0000    0     1.008    3.025713   -5.195036   -0.136531
  18 H   1.0000    0     1.008   -1.356235    1.873620   -2.647507
  19 H   1.0000    0     1.008   -5.365882    3.646283   -0.898092
  20 H   1.0000    0     1.008   -6.602398    0.530563   -1.166870
  21 H   1.0000    0     1.008   -5.861293    2.296055   -3.933657

      -----------------------------------------------------------      
     |                   =====================                   |     
     |                           x T B                           |     
     |                   =====================                   |     
     |                         S. Grimme                         |     
     |          Mulliken Center for Theoretical Chemistry        |     
     |                    University of Bonn                     |     
      -----------------------------------------------------------      

   * xtb version 6.7.1 (edcfbbe) compiled by 'albert@albert-system' on 2024-07-22

   xtb is free software: you can redistribute it and/or modify it under
   the terms of the GNU Lesser General Public License as published by
   the Free Software Foundation, either version 3 of the License, or
   (at your option) any later version.
   
   xtb is distributed in the hope that it will be useful,
   but WITHOUT ANY WARRANTY; without even the implied warranty of
   MERCHANTABILITY or FITNESS FOR A PARTICULAR PURPOSE.  See the
   GNU Lesser General Public License for more details.
   
   Cite this work as:
   * C. Bannwarth, E. Caldeweyher, S. Ehlert, A. Hansen, P. Pracht,
     J. Seibert, S. Spicher, S. Grimme, WIREs Comput. Mol. Sci., 2020, 11,
     e01493. DOI: 10.1002/wcms.1493
   
   for GFN2-xTB:
   * C. Bannwarth, S. Ehlert and S. Grimme., J. Chem. Theory Comput., 2019,
     15, 1652-1671. DOI: 10.1021/acs.jctc.8b01176
   for GFN1-xTB:
   * S. Grimme, C. Bannwarth, P. Shushkov, J. Chem. Theory Comput., 2017,
     13, 1989-2009. DOI: 10.1021/acs.jctc.7b00118
   for GFN0-xTB:
   * P. Pracht, E. Caldeweyher, S. Ehlert, S. Grimme, ChemRxiv, 2019, preprint.
     DOI: 10.26434/chemrxiv.8326202.v1
   for GFN-FF:
   * S. Spicher and S. Grimme, Angew. Chem. Int. Ed., 2020, 59, 15665-15673.
     DOI: 10.1002/anie.202004239
   
   for ALPB and GBSA implicit solvation:
   * S. Ehlert, M. Stahn, S. Spicher, S. Grimme, J. Chem. Theory Comput.,
     2021, 17, 4250-4261. DOI: 10.1021/acs.jctc.1c00471
   
   for ddCOSMO and CPCM-X implicit solvation:
   * M. Stahn, S. Ehlert, S. Grimme, J. Phys. Chem. A,
     2023, XX, XXXX-XXXX. DOI: 10.1021/acs.jpca.3c04382
   
   for DFT-D4:
   * E. Caldeweyher, C. Bannwarth and S. Grimme, J. Chem. Phys., 2017,
     147, 034112. DOI: 10.1063/1.4993215
   * E. Caldeweyher, S. Ehlert, A. Hansen, H. Neugebauer, S. Spicher,
     C. Bannwarth and S. Grimme, J. Chem. Phys., 2019, 150, 154122.
     DOI: 10.1063/1.5090222
   * E. Caldeweyher, J.-M. Mewes, S. Ehlert and S. Grimme, Phys. Chem. Chem. Phys.
     2020, 22, 8499-8512. DOI: 10.1039/D0CP00502A
   
   for sTDA-xTB:
   * S. Grimme and C. Bannwarth, J. Chem. Phys., 2016, 145, 054103.
     DOI: 10.1063/1.4959605
   
   in the mass-spec context:
   * V. Asgeirsson, C. Bauer and S. Grimme, Chem. Sci., 2017, 8, 4879.
     DOI: 10.1039/c7sc00601b
   * J. Koopman and S. Grimme, ACS Omega 2019, 4, 12, 15120-15133.
     DOI: 10.1021/acsomega.9b02011
   
   for metadynamics refer to:
   * S. Grimme, J. Chem. Theory Comput., 2019, 155, 2847-2862
     DOI: 10.1021/acs.jctc.9b00143
   
   for SPH calculations refer to:
   * S. Spicher and S. Grimme, J. Chem. Theory Comput., 2021, 17, 1701-1714
     DOI: 10.1021/acs.jctc.0c01306
   
   for ONIOM refer to:
   * C. Plett, A. Katbashev, S. Ehlert, S. Grimme, M. Bursch,
     Phys. Chem. Chem. Phys., 2023, 25, 17860-17868. DOI: 10.1039/D3CP02178E
   
   for DIPRO refer to:
   * J. Kohn, N. Gildemeister, S. Grimme, D. Fazzi, A. Hansen,
     J. Chem. Phys., 2023, just accepted.
   
   for PTB refer to:
   * S. Grimme, M. Mueller, A. Hansen, J. Chem. Phys., 2023, 158, 124111.
     DOI: 10.1063/5.0137838
   
   with help from (in alphabetical order)
   P. Atkinson, C. Bannwarth, F. Bohle, G. Brandenburg, E. Caldeweyher
   M. Checinski, S. Dohm, S. Ehlert, S. Ehrlich, I. Gerasimov, C. Hölzer
   A. Katbashev, J. Kohn, J. Koopman, C. Lavigne, S. Lehtola, F. März, M. Müller,
   F. Musil, H. Neugebauer, J. Pisarek, C. Plett, P. Pracht, F. Pultar,
   J. Seibert, P. Shushkov, S. Spicher, M. Stahn, M. Steiner, T. Strunk,
   J. Stückrath, T. Rose, and J. Unsleber
   
 * started run on 2026/09/28 at 23:19:04.338     
   ID    Z sym.   atoms
    1    6 C      1, 2, 5-7, 10
    2    8 O      3, 8
    3    7 N      4, 9
    4    1 H      11-22

           -------------------------------------------------
          |                Calculation Setup                |
           -------------------------------------------------

          program call               : /app1/ebapps/arches/flat-avx2/software/ORCA/6.1.0-gompi-2023b-avx2/bin/otool_xtb o01-xtb-opt-freq_XTB.xyz --grad -c 0 -u 0 -P 8 --namespace o01-xtb-opt-freq --input o01-xtb-opt-freq_XTB.input.tmp --alpb WATER --acc 0.200000
          hostname                   : IN-006
          calculation namespace      : o01-xtb-opt-freq
          coordinate file            : o01-xtb-opt-freq_XTB.xyz
          omp threads                :                     8


           -------------------------------------------------
          |                 G F N 2 - x T B                 |
           -------------------------------------------------

        Reference                      10.1021/acs.jctc.8b01176
      * Hamiltonian:
        H0-scaling (s, p, d)           1.850000    2.230000    2.230000
        zeta-weighting                 0.500000
      * Dispersion:
        s8                             2.700000
        a1                             0.520000
        a2                             5.000000
        s9                             5.000000
      * Repulsion:
        kExp                           1.500000    1.000000
        rExp                           1.000000
      * Coulomb:
        alpha                          2.000000
        third order                    shell-resolved
        anisotropic                    true
        a3                             3.000000
        a5                             4.000000
        cn-shift                       1.200000
        cn-exp                         4.000000
        max-rad                        5.000000

      * Solvation model:               ALPB
        Solvent                        WATER
        Parameter file                 internal GFN2-xTB/ALPB
        Dielectric constant                8.0200E+01
        Reference state                gsolv [1 M gas/solution]
        Free energy shift                  1.0808E-03 Eh       6.7819E-01 kcal/mol
        Temperature                        2.9815E+02 K
        Density                            1.0000E+00 kg/L
        Solvent mass                       1.8000E+01 g/mol
        Interaction kernel             P16
        Born radius scaling (c1)           1.4744E+00
        Born radii integrator          GBOBC
        Born offset                        0.0000E+00 a0       0.0000E+00 AA
        H-bond correction              true
        Ion screening                  false
        Surface tension                    1.0000E-05 Eh       1.5569E+01 dyn/cm
        Grid points                               230 per atom
q/qsh data taken from xtbrestart
CAMM data taken from xtbrestart

          ...................................................
          :                      SETUP                      :
          :.................................................:
          :  # basis functions                  52          :
          :  # atomic orbitals                  52          :
          :  # shells                           32          :
          :  # electrons                        58          :
          :  max. iterations                   250          :
          :  Hamiltonian                  GFN2-xTB          :
          :  restarted?                       true          :
          :  GBSA solvation                   true          :
          :  PC potential                    false          :
          :  electronic temp.          300.0000000     K    :
          :  accuracy                    0.2000000          :
          :  -> integral cutoff          0.3198970E+02      :
          :  -> integral neglect         0.2000000E-08      :
          :  -> SCF convergence          0.2000000E-06 Eh   :
          :  -> wf. convergence          0.2000000E-04 e    :
          :  Broyden damping             0.4000000          :
          :  net charge                          0          :
          :  unpaired electrons                  0          :
          ...................................................

 iter      E             dE          RMSdq      gap      omega  full diag
   1    -33.3788681 -0.333789E+02  0.229E-02    4.58       0.0  T
   2    -33.3788682 -0.625057E-07  0.137E-02    4.58       1.6  T
   3    -33.3788682 -0.106485E-08  0.117E-03    4.58      18.3  T
   4    -33.3788682 -0.161076E-07  0.444E-04    4.58      48.0  T
   5    -33.3788682 -0.233307E-09  0.180E-04    4.58     118.1  T
   6    -33.3788682 -0.422276E-10  0.284E-05    4.58     750.8  T

   *** convergence criteria satisfied after 6 iterations ***

         #    Occupation            Energy/Eh            Energy/eV
      -------------------------------------------------------------
         1        2.0000           -0.7089501             -19.2915
       ...           ...                  ...                  ...
        23        2.0000           -0.4655681             -12.6688
        24        2.0000           -0.4622510             -12.5785
        25        2.0000           -0.4549995             -12.3812
        26        2.0000           -0.4332118             -11.7883
        27        2.0000           -0.4082157             -11.1081
        28        2.0000           -0.4029175             -10.9639
        29        2.0000           -0.3907947             -10.6341 (HOMO)
        30                         -0.2223943              -6.0517 (LUMO)
        31                         -0.2130222              -5.7966
        32                          0.0043446               0.1182
        33                          0.0072104               0.1962
        34                          0.0863766               2.3504
       ...                                ...                  ...
        52                          0.6064530              16.5024
      -------------------------------------------------------------
                  HL-Gap            0.1684004 Eh            4.5824 eV
             Fermi-level           -0.3065945 Eh           -8.3429 eV

 SCC (total)                   0 d,  0 h,  0 min,  0.009 sec
 SCC setup                      ...        0 min,  0.000 sec (  4.248%)
 Dispersion                     ...        0 min,  0.000 sec (  1.853%)
 classical contributions        ...        0 min,  0.000 sec (  0.229%)
 integral evaluation            ...        0 min,  0.001 sec (  7.769%)
 iterations                     ...        0 min,  0.006 sec ( 65.692%)
 molecular gradient             ...        0 min,  0.002 sec ( 18.536%)
 printout                       ...        0 min,  0.000 sec (  1.395%)

         :::::::::::::::::::::::::::::::::::::::::::::::::::::
         ::                     SUMMARY                     ::
         :::::::::::::::::::::::::::::::::::::::::::::::::::::
         :: total energy             -32.991293645927 Eh    ::
         :: total w/o Gsasa/hb       -32.988919740505 Eh    ::
         :: gradient norm              0.001473692117 Eh/a0 ::
         :: HOMO-LUMO gap              4.582408941972 eV    ::
         ::.................................................::
         :: SCC energy               -33.378763232707 Eh    ::
         :: -> isotropic ES            0.104308634507 Eh    ::
         :: -> anisotropic ES          0.001147817131 Eh    ::
         :: -> anisotropic XC          0.010768894156 Eh    ::
         :: -> dispersion             -0.015447292131 Eh    ::
         :: -> Gsolv                  -0.020306640869 Eh    ::
         ::    -> Gelec               -0.017932735447 Eh    ::
         ::    -> Gsasa                0.001578031785 Eh    ::
         ::    -> Ghb                 -0.005032696905 Eh    ::
         ::    -> Gshift               0.001080759698 Eh    ::
         :: repulsion energy           0.387469586780 Eh    ::
         :: add. restraining           0.000000000000 Eh    ::
         :: total charge              -0.000000000000 e     ::
         :::::::::::::::::::::::::::::::::::::::::::::::::::::


Property printout bound to 'properties.out'

           -------------------------------------------------
          | TOTAL ENERGY              -32.991293645927 Eh   |
          | GRADIENT NORM               0.001473692117 Eh/α |
          | HOMO-LUMO GAP               4.582408941972 eV   |
           -------------------------------------------------

------------------------------------------------------------------------
 * finished run on 2026/09/28 at 23:19:04.400     
------------------------------------------------------------------------
 total:
 * wall-time:     0 d,  0 h,  0 min,  0.060 sec
 *  cpu-time:     0 d,  0 h,  0 min,  0.387 sec
 * ratio c/w:     6.438 speedup
 SCF:
 * wall-time:     0 d,  0 h,  0 min,  0.009 sec
 *  cpu-time:     0 d,  0 h,  0 min,  0.074 sec
 * ratio c/w:     7.878 speedup


-------------------------   --------------------
FINAL SINGLE POINT ENERGY       -32.991293645930
-------------------------   --------------------


-------------
DIPOLE MOMENT
-------------
                                X             Y             Z
Total Dipole Moment    :      1.10000       0.33900       0.77400
                        -----------------------------------------
Magnitude (a.u.)       :      1.38708
Magnitude (Debye)      :      3.52568


------------------
CARTESIAN GRADIENT
------------------

   1   C   :    0.000406360   -0.000364881   -0.000231252
   2   C   :    0.000136481    0.000025026    0.000540163
   3   O   :   -0.000138233    0.000250588   -0.000202850
   4   N   :    0.000288527   -0.000170202   -0.000260566
   5   C   :   -0.000182269   -0.000416008    0.000186877
   6   C   :    0.000269654   -0.000401707    0.000087458
   7   C   :   -0.000202888    0.000210471   -0.000033080
   8   O   :    0.000030154   -0.000232214    0.000174105
   9   N   :   -0.000079649    0.000141385   -0.000070056
  10   C   :    0.000267439    0.000185271   -0.000095023
  11   H   :   -0.000136363    0.000284903   -0.000082762
  12   H   :   -0.000138540   -0.000100354    0.000057596
  13   H   :   -0.000157940    0.000202876    0.000032630
  14   H   :   -0.000086646    0.000014518    0.000090043
  15   H   :    0.000066707    0.000152918   -0.000035604
  16   H   :   -0.000105771    0.000076102   -0.000077133
  17   H   :   -0.000157308    0.000134051    0.000016027
  18   H   :    0.000023716    0.000155577   -0.000060043
  19   H   :   -0.000019559    0.000049843   -0.000108710
  20   H   :   -0.000027918   -0.000001132    0.000075302
  21   H   :   -0.000036681   -0.000187210   -0.000029016
  22   H   :   -0.000019273   -0.000009819    0.000025893

Difference to translation invariance:
           :    0.0000000000   -0.0000000000    0.0000000000

Difference to rotation invariance:
           :    0.0000722160    0.0000175867    0.0000848959

Norm of the Cartesian gradient     ...    0.0014736921
RMS gradient                       ...    0.0001813990
MAX gradient                       ...    0.0005401632
------------------------------------------------------------------------------
                         ORCA GEOMETRY RELAXATION STEP
------------------------------------------------------------------------------

Reading the OPT-File                    .... done
Getting information on internals        .... done
Copying old internal coords+grads       .... done
Making the new internal coordinates     .... (2022 redundants) done
Validating the new internal coordinates .... (2022 redundants) done
Calculating the B-matrix                .... done
Calculating the G,G- and P matrices     .... done
Transforming gradient to internals      .... done
Projecting the internal gradient        .... done
Number of atoms                         ....  22
Number of internal coordinates          ....  92
Current Energy                          ....   -32.991293646 Eh
Current gradient norm                   ....     0.001473692 Eh/bohr
Maximum allowed component of the step   ....  0.300
Current trust radius                    ....  0.700
Updating the Hessian (BFGS)             .... done
Forming the augmented Hessian           .... done
Diagonalizing the augmented Hessian     .... done
Last element of RFO vector              ....  0.996529282
Lowest eigenvalues of augmented Hessian:
 -0.000019659  0.000919679  0.002628234  0.005532637  0.011206780
Length of the computed step             ....  0.083532876
The final length of the internal step   ....  0.083532876
Converting the step to Cartesian space:
 Initial RMS(Int)=    0.0087089044
Transforming coordinates:
 Iter   0:  RMS(Cart)=    0.0153217844 RMS(Int)=    0.0087073769
done
Storing new coordinates                 .... done
The predicted energy change is          ....    -0.000009898
Previously predicted energy change      ....    -0.000009426
Actually observed energy change         ....    -0.000013749
Ratio of predicted to observed change   ....     1.458638710
New trust radius                        ....     0.700000000

                                .--------------------.
          ----------------------|Geometry convergence|-------------------------
          Item                value                   Tolerance       Converged
          ---------------------------------------------------------------------
          Energy change      -0.0000137487            0.0000050000      NO
          RMS gradient        0.0001116866            0.0001000000      NO
          MAX gradient        0.0003160087            0.0003000000      NO
          RMS step            0.0087089044            0.0020000000      NO
          MAX step            0.0374779353            0.0040000000      NO
          -------------------------------------------------------------------------
          ........................................................
          Max(Bonds)      0.0005      Max(Angles)    0.22
          Max(Dihed)        2.15      Max(Improp)    0.00
          ---------------------------------------------------------------------

The optimization has not yet converged - more geometry cycles are needed


    ---------------------------------------------------------------------------
                         Redundant Internal Coordinates
                            (Angstroem and degrees)

        Definition                    Value    dE/dq     Step     New-Value
    ----------------------------------------------------------------------------
     1. B(C   1,C   0)                1.5050 -0.000162  0.0002    1.5052   
     2. B(O   2,C   1)                1.2322  0.000316 -0.0002    1.2321   
     3. B(N   3,C   1)                1.3409  0.000236 -0.0002    1.3407   
     4. B(C   4,N   3)                1.4548  0.000129  0.0005    1.4552   
     5. B(C   5,C   4)                1.5201  0.000033 -0.0002    1.5199   
     6. B(C   6,C   4)                1.5436  0.000110  0.0002    1.5439   
     7. B(O   7,C   6)                1.2268  0.000195 -0.0002    1.2265   
     8. B(N   8,C   6)                1.3341  0.000232 -0.0002    1.3339   
     9. B(C   9,N   8)                1.4452 -0.000174  0.0004    1.4456   
    10. B(H  10,C   0)                1.0881  0.000115 -0.0002    1.0879   
    11. B(H  11,C   0)                1.0853 -0.000011  0.0001    1.0854   
    12. B(H  12,C   0)                1.0860  0.000079 -0.0002    1.0858   
    13. B(H  13,N   3)                1.0090  0.000064 -0.0001    1.0089   
    14. B(H  14,C   4)                1.0967  0.000083 -0.0003    1.0964   
    15. B(H  15,C   5)                1.0859  0.000054 -0.0001    1.0858   
    16. B(H  16,C   5)                1.0874  0.000056 -0.0000    1.0874   
    17. B(H  17,C   5)                1.0857 -0.000011 -0.0001    1.0856   
    18. B(H  18,O   2)                2.0089  0.000010 -0.0004    2.0085   
    19. B(H  18,N   8)                1.0158  0.000061 -0.0001    1.0157   
    20. B(H  19,C   9)                1.0903  0.000040 -0.0001    1.0902   
    21. B(H  20,C   9)                1.0890  0.000135 -0.0002    1.0888   
    22. B(H  21,C   9)                1.0888 -0.000020  0.0002    1.0890   
    23. A(H  11,C   0,H  12)          110.12  0.000206   -0.04    110.08   
    24. A(C   1,C   0,H  11)          110.93 -0.000009   -0.10    110.83   
    25. A(C   1,C   0,H  12)          109.21  0.000028   -0.02    109.19   
    26. A(C   1,C   0,H  10)          108.99 -0.000118    0.09    109.08   
    27. A(H  10,C   0,H  12)          108.51 -0.000220    0.12    108.63   
    28. A(H  10,C   0,H  11)          109.04  0.000105   -0.05    108.99   
    29. A(O   2,C   1,N   3)          121.98 -0.000017    0.04    122.02   
    30. A(C   0,C   1,N   3)          115.09  0.000224   -0.03    115.06   
    31. A(C   0,C   1,O   2)          122.93 -0.000207   -0.01    122.92   
    32. A(C   4,N   3,H  13)          116.74 -0.000023   -0.05    116.69   
    33. A(C   1,N   3,C   4)          123.31  0.000030    0.02    123.32   
    34. A(C   1,N   3,H  13)          119.81 -0.000014    0.09    119.89   
    35. A(C   5,C   4,C   6)          111.20  0.000018   -0.00    111.20   
    36. A(N   3,C   4,C   5)          110.07  0.000071   -0.04    110.04   
    37. A(N   3,C   4,C   6)          109.62 -0.000032   -0.10    109.52   
    38. A(C   6,C   4,H  14)          107.84 -0.000024    0.00    107.85   
    39. A(C   5,C   4,H  14)          111.07  0.000075    0.06    111.13   
    40. A(N   3,C   4,H  14)          106.91 -0.000117    0.07    106.99   
    41. A(H  16,C   5,H  17)          110.09  0.000207    0.02    110.11   
    42. A(C   4,C   5,H  17)          110.38 -0.000150   -0.01    110.37   
    43. A(H  15,C   5,H  16)          107.91  0.000115   -0.01    107.90   
    44. A(C   4,C   5,H  16)          109.68 -0.000200   -0.03    109.65   
    45. A(C   4,C   5,H  15)          109.48 -0.000131    0.00    109.48   
    46. A(H  15,C   5,H  17)          109.26  0.000164    0.03    109.29   
    47. A(O   7,C   6,N   8)          124.28  0.000240   -0.02    124.25   
    48. A(C   4,C   6,N   8)          113.28  0.000015   -0.02    113.26   
    49. A(C   4,C   6,O   7)          122.44 -0.000255    0.04    122.48   
    50. A(C   9,N   8,H  18)          117.88 -0.000018   -0.17    117.71   
    51. A(C   6,N   8,H  18)          118.42  0.000106    0.22    118.64   
    52. A(C   6,N   8,C   9)          123.24 -0.000088   -0.03    123.22   
    53. A(N   8,C   9,H  19)          110.55  0.000053   -0.02    110.53   
    54. A(H  20,C   9,H  21)          109.69 -0.000012   -0.05    109.64   
    55. A(H  19,C   9,H  21)          109.32  0.000015    0.04    109.36   
    56. A(N   8,C   9,H  21)          109.86  0.000045   -0.09    109.77   
    57. A(H  19,C   9,H  20)          109.49  0.000051   -0.00    109.48   
    58. A(N   8,C   9,H  20)          107.91 -0.000155    0.13    108.04   
    59. D(O   2,C   1,C   0,H  10)    103.46 -0.000190    2.15    105.61   
    60. D(O   2,C   1,C   0,H  11)   -136.47 -0.000141    2.09   -134.39   
    61. D(N   3,C   1,C   0,H  11)     43.69 -0.000086    2.03     45.72   
    62. D(N   3,C   1,C   0,H  10)    -76.37 -0.000135    2.09    -74.28   
    63. D(O   2,C   1,C   0,H  12)    -14.93  0.000128    1.96    -12.97   
    64. D(H  13,N   3,C   1,C   0)      5.65  0.000028   -0.11      5.55   
    65. D(C   4,N   3,C   1,C   0)   -178.94 -0.000076    0.08   -178.86   
    66. D(H  13,N   3,C   1,O   2)   -174.18  0.000083   -0.16   -174.35   
    67. D(C   4,N   3,C   1,O   2)      1.22 -0.000021    0.03      1.25   
    68. D(H  14,C   4,N   3,C   1)     34.79 -0.000018    0.03     34.82   
    69. D(C   6,C   4,N   3,H  13)     93.68 -0.000011    0.23     93.91   
    70. D(C   6,C   4,N   3,C   1)    -81.86  0.000090    0.04    -81.82   
    71. D(C   5,C   4,N   3,H  13)    -28.94 -0.000059    0.33    -28.62   
    72. D(C   5,C   4,N   3,C   1)    155.53  0.000042    0.13    155.66   
    73. D(H  15,C   5,C   4,N   3)   -173.97  0.000005   -0.44   -174.41   
    74. D(H  16,C   5,C   4,H  14)   -173.99  0.000008   -0.30   -174.29   
    75. D(H  16,C   5,C   4,C   6)    -53.88  0.000041   -0.26    -54.14   
    76. D(H  16,C   5,C   4,N   3)     67.80  0.000061   -0.41     67.39   
    77. D(H  15,C   5,C   4,H  14)    -55.76 -0.000048   -0.33    -56.10   
    78. D(H  15,C   5,C   4,C   6)     64.35 -0.000016   -0.29     64.06   
    79. D(N   8,C   6,C   4,C   5)   -164.34  0.000035   -0.17   -164.51   
    80. D(N   8,C   6,C   4,N   3)     73.72 -0.000045   -0.06     73.66   
    81. D(O   7,C   6,C   4,H  14)    137.83  0.000102   -0.08    137.75   
    82. D(O   7,C   6,C   4,C   5)     15.83  0.000014   -0.16     15.67   
    83. D(O   7,C   6,C   4,N   3)   -106.11 -0.000066   -0.04   -106.16   
    84. D(H  18,N   8,C   6,O   7)    174.60 -0.000012    0.06    174.66   
    85. D(H  18,N   8,C   6,C   4)     -5.23 -0.000033    0.07     -5.16   
    86. D(C   9,N   8,C   6,O   7)      2.48 -0.000010   -0.16      2.32   
    87. D(C   9,N   8,C   6,C   4)   -177.35 -0.000030   -0.15   -177.50   
    88. D(H  19,C   9,N   8,H  18)    -60.15 -0.000083    0.10    -60.04   
    89. D(H  19,C   9,N   8,C   6)    112.01 -0.000076    0.35    112.36   
    90. D(H  21,C   9,N   8,C   6)   -127.25  0.000006    0.33   -126.92   
    91. D(H  20,C   9,N   8,H  18)   -179.85 -0.000082    0.04   -179.81   
    92. D(H  20,C   9,N   8,C   6)     -7.69 -0.000075    0.29     -7.41   
    ----------------------------------------------------------------------------

Geometry step timings:
Preparation and reading OPT file:      0.001 s ( 3.492 %)
Internal coordinates            :      0.000 s ( 0.195 %)
B/P matrices and projection     :      0.002 s ( 7.347 %)
Hessian update/contruction      :      0.017 s (50.840 %)
Making the step                 :      0.002 s ( 6.611 %)
Converting the step to Cartesian:      0.000 s ( 0.568 %)
Storing new data                :      0.005 s (14.580 %)
Checking convergence            :      0.000 s ( 0.417 %)
Final printing                  :      0.005 s (15.938 %)
Total time                      :      0.034 s

Time for energy+gradient        :      0.148 s
Time for complete geometry iter :      0.212 s

         *************************************************************
         *                GEOMETRY OPTIMIZATION CYCLE  15            *
         *************************************************************
---------------------------------
CARTESIAN COORDINATES (ANGSTROEM)
---------------------------------
  C     2.234016    1.755174    1.162544
  C     1.445855    1.034032    0.102124
  O     1.170043    1.539544   -0.987082
  N     1.058731   -0.207507    0.428040
  C     0.309840   -1.073063   -0.470724
  C     0.537092   -2.529551   -0.100424
  C    -1.189110   -0.708583   -0.408288
  O    -2.015046   -1.413096    0.162561
  N    -1.479386    0.436256   -1.028246
  C    -2.807281    1.006873   -1.056720
  H     1.559670    2.064525    1.958270
  H     3.000191    1.109564    1.579931
  H     2.688484    2.640927    0.728996
  H     1.227653   -0.558553    1.358736
  H     0.664580   -0.863536   -1.486801
  H     0.055832   -3.169098   -0.834158
  H     0.087488   -2.734980    0.868089
  H     1.599448   -2.751207   -0.073262
  H    -0.717581    0.993816   -1.402819
  H    -2.837811    1.932860   -0.482203
  H    -3.494090    0.284727   -0.618342
  H    -3.098614    1.210876   -2.085958

----------------------------
CARTESIAN COORDINATES (A.U.)
----------------------------
  NO LB    ZA    FRAG    MASS        X           Y           Z
   0 C   6.0000    0    12.011    4.221678    3.316799    2.196889
   1 C   6.0000    0    12.011    2.732270    1.954037    0.192987
   2 O   8.0000    0    15.999    2.211061    2.909317   -1.865315
   3 N   7.0000    0    14.007    2.000712   -0.392132    0.808878
   4 C   6.0000    0    12.011    0.585513   -2.027795   -0.889539
   5 C   6.0000    0    12.011    1.014957   -4.780158   -0.189775
   6 C   6.0000    0    12.011   -2.247093   -1.339029   -0.771552
   7 O   8.0000    0    15.999   -3.807884   -2.670365    0.307195
   8 N   7.0000    0    14.007   -2.795634    0.824404   -1.943104
   9 C   6.0000    0    12.011   -5.304993    1.902715   -1.996911
  10 H   1.0000    0     1.008    2.947348    3.901386    3.700595
  11 H   1.0000    0     1.008    5.669539    2.096771    2.985637
  12 H   1.0000    0     1.008    5.080499    4.990629    1.377602
  13 H   1.0000    0     1.008    2.319928   -1.055512    2.567638
  14 H   1.0000    0     1.008    1.255874   -1.631846   -2.809646
  15 H   1.0000    0     1.008    0.105508   -5.988727   -1.576331
  16 H   1.0000    0     1.008    0.165328   -5.168364    1.640451
  17 H   1.0000    0     1.008    3.022519   -5.199027   -0.138445
  18 H   1.0000    0     1.008   -1.356031    1.878040   -2.650944
  19 H   1.0000    0     1.008   -5.362686    3.652576   -0.911233
  20 H   1.0000    0     1.008   -6.602873    0.538056   -1.168497
  21 H   1.0000    0     1.008   -5.855532    2.288225   -3.941890

      -----------------------------------------------------------      
     |                   =====================                   |     
     |                           x T B                           |     
     |                   =====================                   |     
     |                         S. Grimme                         |     
     |          Mulliken Center for Theoretical Chemistry        |     
     |                    University of Bonn                     |     
      -----------------------------------------------------------      

   * xtb version 6.7.1 (edcfbbe) compiled by 'albert@albert-system' on 2024-07-22

   xtb is free software: you can redistribute it and/or modify it under
   the terms of the GNU Lesser General Public License as published by
   the Free Software Foundation, either version 3 of the License, or
   (at your option) any later version.
   
   xtb is distributed in the hope that it will be useful,
   but WITHOUT ANY WARRANTY; without even the implied warranty of
   MERCHANTABILITY or FITNESS FOR A PARTICULAR PURPOSE.  See the
   GNU Lesser General Public License for more details.
   
   Cite this work as:
   * C. Bannwarth, E. Caldeweyher, S. Ehlert, A. Hansen, P. Pracht,
     J. Seibert, S. Spicher, S. Grimme, WIREs Comput. Mol. Sci., 2020, 11,
     e01493. DOI: 10.1002/wcms.1493
   
   for GFN2-xTB:
   * C. Bannwarth, S. Ehlert and S. Grimme., J. Chem. Theory Comput., 2019,
     15, 1652-1671. DOI: 10.1021/acs.jctc.8b01176
   for GFN1-xTB:
   * S. Grimme, C. Bannwarth, P. Shushkov, J. Chem. Theory Comput., 2017,
     13, 1989-2009. DOI: 10.1021/acs.jctc.7b00118
   for GFN0-xTB:
   * P. Pracht, E. Caldeweyher, S. Ehlert, S. Grimme, ChemRxiv, 2019, preprint.
     DOI: 10.26434/chemrxiv.8326202.v1
   for GFN-FF:
   * S. Spicher and S. Grimme, Angew. Chem. Int. Ed., 2020, 59, 15665-15673.
     DOI: 10.1002/anie.202004239
   
   for ALPB and GBSA implicit solvation:
   * S. Ehlert, M. Stahn, S. Spicher, S. Grimme, J. Chem. Theory Comput.,
     2021, 17, 4250-4261. DOI: 10.1021/acs.jctc.1c00471
   
   for ddCOSMO and CPCM-X implicit solvation:
   * M. Stahn, S. Ehlert, S. Grimme, J. Phys. Chem. A,
     2023, XX, XXXX-XXXX. DOI: 10.1021/acs.jpca.3c04382
   
   for DFT-D4:
   * E. Caldeweyher, C. Bannwarth and S. Grimme, J. Chem. Phys., 2017,
     147, 034112. DOI: 10.1063/1.4993215
   * E. Caldeweyher, S. Ehlert, A. Hansen, H. Neugebauer, S. Spicher,
     C. Bannwarth and S. Grimme, J. Chem. Phys., 2019, 150, 154122.
     DOI: 10.1063/1.5090222
   * E. Caldeweyher, J.-M. Mewes, S. Ehlert and S. Grimme, Phys. Chem. Chem. Phys.
     2020, 22, 8499-8512. DOI: 10.1039/D0CP00502A
   
   for sTDA-xTB:
   * S. Grimme and C. Bannwarth, J. Chem. Phys., 2016, 145, 054103.
     DOI: 10.1063/1.4959605
   
   in the mass-spec context:
   * V. Asgeirsson, C. Bauer and S. Grimme, Chem. Sci., 2017, 8, 4879.
     DOI: 10.1039/c7sc00601b
   * J. Koopman and S. Grimme, ACS Omega 2019, 4, 12, 15120-15133.
     DOI: 10.1021/acsomega.9b02011
   
   for metadynamics refer to:
   * S. Grimme, J. Chem. Theory Comput., 2019, 155, 2847-2862
     DOI: 10.1021/acs.jctc.9b00143
   
   for SPH calculations refer to:
   * S. Spicher and S. Grimme, J. Chem. Theory Comput., 2021, 17, 1701-1714
     DOI: 10.1021/acs.jctc.0c01306
   
   for ONIOM refer to:
   * C. Plett, A. Katbashev, S. Ehlert, S. Grimme, M. Bursch,
     Phys. Chem. Chem. Phys., 2023, 25, 17860-17868. DOI: 10.1039/D3CP02178E
   
   for DIPRO refer to:
   * J. Kohn, N. Gildemeister, S. Grimme, D. Fazzi, A. Hansen,
     J. Chem. Phys., 2023, just accepted.
   
   for PTB refer to:
   * S. Grimme, M. Mueller, A. Hansen, J. Chem. Phys., 2023, 158, 124111.
     DOI: 10.1063/5.0137838
   
   with help from (in alphabetical order)
   P. Atkinson, C. Bannwarth, F. Bohle, G. Brandenburg, E. Caldeweyher
   M. Checinski, S. Dohm, S. Ehlert, S. Ehrlich, I. Gerasimov, C. Hölzer
   A. Katbashev, J. Kohn, J. Koopman, C. Lavigne, S. Lehtola, F. März, M. Müller,
   F. Musil, H. Neugebauer, J. Pisarek, C. Plett, P. Pracht, F. Pultar,
   J. Seibert, P. Shushkov, S. Spicher, M. Stahn, M. Steiner, T. Strunk,
   J. Stückrath, T. Rose, and J. Unsleber
   
 * started run on 2026/09/28 at 23:19:04.552     
   ID    Z sym.   atoms
    1    6 C      1, 2, 5-7, 10
    2    8 O      3, 8
    3    7 N      4, 9
    4    1 H      11-22

           -------------------------------------------------
          |                Calculation Setup                |
           -------------------------------------------------

          program call               : /app1/ebapps/arches/flat-avx2/software/ORCA/6.1.0-gompi-2023b-avx2/bin/otool_xtb o01-xtb-opt-freq_XTB.xyz --grad -c 0 -u 0 -P 8 --namespace o01-xtb-opt-freq --input o01-xtb-opt-freq_XTB.input.tmp --alpb WATER --acc 0.200000
          hostname                   : IN-006
          calculation namespace      : o01-xtb-opt-freq
          coordinate file            : o01-xtb-opt-freq_XTB.xyz
          omp threads                :                     8


           -------------------------------------------------
          |                 G F N 2 - x T B                 |
           -------------------------------------------------

        Reference                      10.1021/acs.jctc.8b01176
      * Hamiltonian:
        H0-scaling (s, p, d)           1.850000    2.230000    2.230000
        zeta-weighting                 0.500000
      * Dispersion:
        s8                             2.700000
        a1                             0.520000
        a2                             5.000000
        s9                             5.000000
      * Repulsion:
        kExp                           1.500000    1.000000
        rExp                           1.000000
      * Coulomb:
        alpha                          2.000000
        third order                    shell-resolved
        anisotropic                    true
        a3                             3.000000
        a5                             4.000000
        cn-shift                       1.200000
        cn-exp                         4.000000
        max-rad                        5.000000

      * Solvation model:               ALPB
        Solvent                        WATER
        Parameter file                 internal GFN2-xTB/ALPB
        Dielectric constant                8.0200E+01
        Reference state                gsolv [1 M gas/solution]
        Free energy shift                  1.0808E-03 Eh       6.7819E-01 kcal/mol
        Temperature                        2.9815E+02 K
        Density                            1.0000E+00 kg/L
        Solvent mass                       1.8000E+01 g/mol
        Interaction kernel             P16
        Born radius scaling (c1)           1.4744E+00
        Born radii integrator          GBOBC
        Born offset                        0.0000E+00 a0       0.0000E+00 AA
        H-bond correction              true
        Ion screening                  false
        Surface tension                    1.0000E-05 Eh       1.5569E+01 dyn/cm
        Grid points                               230 per atom
q/qsh data taken from xtbrestart
CAMM data taken from xtbrestart

          ...................................................
          :                      SETUP                      :
          :.................................................:
          :  # basis functions                  52          :
          :  # atomic orbitals                  52          :
          :  # shells                           32          :
          :  # electrons                        58          :
          :  max. iterations                   250          :
          :  Hamiltonian                  GFN2-xTB          :
          :  restarted?                       true          :
          :  GBSA solvation                   true          :
          :  PC potential                    false          :
          :  electronic temp.          300.0000000     K    :
          :  accuracy                    0.2000000          :
          :  -> integral cutoff          0.3198970E+02      :
          :  -> integral neglect         0.2000000E-08      :
          :  -> SCF convergence          0.2000000E-06 Eh   :
          :  -> wf. convergence          0.2000000E-04 e    :
          :  Broyden damping             0.4000000          :
          :  net charge                          0          :
          :  unpaired electrons                  0          :
          ...................................................

 iter      E             dE          RMSdq      gap      omega  full diag
   1    -33.3791098 -0.333791E+02  0.286E-02    4.58       0.0  T
   2    -33.3791099 -0.971230E-07  0.172E-02    4.58       1.2  T
   3    -33.3791099  0.646722E-08  0.147E-03    4.58      14.5  T
   4    -33.3791099 -0.289483E-07  0.456E-04    4.58      46.7  T
   5    -33.3791099 -0.420343E-09  0.208E-04    4.58     102.7  T
   6    -33.3791099 -0.351079E-10  0.221E-05    4.58     966.0  T
   7    -33.3791099 -0.646594E-12  0.106E-05    4.58    2014.7  T

   *** convergence criteria satisfied after 7 iterations ***

         #    Occupation            Energy/Eh            Energy/eV
      -------------------------------------------------------------
         1        2.0000           -0.7089370             -19.2912
       ...           ...                  ...                  ...
        23        2.0000           -0.4655696             -12.6688
        24        2.0000           -0.4622603             -12.5787
        25        2.0000           -0.4551227             -12.3845
        26        2.0000           -0.4331625             -11.7870
        27        2.0000           -0.4081677             -11.1068
        28        2.0000           -0.4028804             -10.9629
        29        2.0000           -0.3907527             -10.6329 (HOMO)
        30                         -0.2222870              -6.0487 (LUMO)
        31                         -0.2128762              -5.7927
        32                          0.0042597               0.1159
        33                          0.0070683               0.1923
        34                          0.0863549               2.3498
       ...                                ...                  ...
        52                          0.6070145              16.5177
      -------------------------------------------------------------
                  HL-Gap            0.1684657 Eh            4.5842 eV
             Fermi-level           -0.3065198 Eh           -8.3408 eV

 SCC (total)                   0 d,  0 h,  0 min,  0.010 sec
 SCC setup                      ...        0 min,  0.000 sec (  3.868%)
 Dispersion                     ...        0 min,  0.000 sec (  1.711%)
 classical contributions        ...        0 min,  0.000 sec (  0.194%)
 integral evaluation            ...        0 min,  0.001 sec (  7.165%)
 iterations                     ...        0 min,  0.007 sec ( 69.002%)
 molecular gradient             ...        0 min,  0.002 sec ( 16.599%)
 printout                       ...        0 min,  0.000 sec (  1.271%)

         :::::::::::::::::::::::::::::::::::::::::::::::::::::
         ::                     SUMMARY                     ::
         :::::::::::::::::::::::::::::::::::::::::::::::::::::
         :: total energy             -32.991308321552 Eh    ::
         :: total w/o Gsasa/hb       -32.988936967233 Eh    ::
         :: gradient norm              0.001669544769 Eh/a0 ::
         :: HOMO-LUMO gap              4.584184557283 eV    ::
         ::.................................................::
         :: SCC energy               -33.379004919468 Eh    ::
         :: -> isotropic ES            0.104277604347 Eh    ::
         :: -> anisotropic ES          0.001145015662 Eh    ::
         :: -> anisotropic XC          0.010772417664 Eh    ::
         :: -> dispersion             -0.015449116362 Eh    ::
         :: -> Gsolv                  -0.020299043907 Eh    ::
         ::    -> Gelec               -0.017927689588 Eh    ::
         ::    -> Gsasa                0.001577856370 Eh    ::
         ::    -> Ghb                 -0.005029970387 Eh    ::
         ::    -> Gshift               0.001080759698 Eh    ::
         :: repulsion energy           0.387696597916 Eh    ::
         :: add. restraining           0.000000000000 Eh    ::
         :: total charge              -0.000000000000 e     ::
         :::::::::::::::::::::::::::::::::::::::::::::::::::::


Property printout bound to 'properties.out'

           -------------------------------------------------
          | TOTAL ENERGY              -32.991308321552 Eh   |
          | GRADIENT NORM               0.001669544769 Eh/α |
          | HOMO-LUMO GAP               4.584184557283 eV   |
           -------------------------------------------------

------------------------------------------------------------------------
 * finished run on 2026/09/28 at 23:19:04.614     
------------------------------------------------------------------------
 total:
 * wall-time:     0 d,  0 h,  0 min,  0.060 sec
 *  cpu-time:     0 d,  0 h,  0 min,  0.395 sec
 * ratio c/w:     6.548 speedup
 SCF:
 * wall-time:     0 d,  0 h,  0 min,  0.010 sec
 *  cpu-time:     0 d,  0 h,  0 min,  0.079 sec
 * ratio c/w:     7.907 speedup


-------------------------   --------------------
FINAL SINGLE POINT ENERGY       -32.991308321550
-------------------------   --------------------


-------------
DIPOLE MOMENT
-------------
                                X             Y             Z
Total Dipole Moment    :      1.10300       0.33100       0.77200
                        -----------------------------------------
Magnitude (a.u.)       :      1.38642
Magnitude (Debye)      :      3.52399


------------------
CARTESIAN GRADIENT
------------------

   1   C   :    0.000455651   -0.000218980   -0.000270330
   2   C   :   -0.000019744   -0.000080119    0.000315233
   3   O   :   -0.000068155    0.000251462   -0.000037954
   4   N   :    0.000379765    0.000078156    0.000126848
   5   C   :    0.000011004   -0.000639029   -0.000281959
   6   C   :    0.000290129   -0.000446099    0.000111969
   7   C   :   -0.000550007    0.000109158    0.000172668
   8   O   :    0.000143218    0.000022343    0.000005694
   9   N   :    0.000556451   -0.000117967    0.000007104
  10   C   :    0.000114134    0.000125583    0.000192352
  11   H   :   -0.000114027    0.000228847   -0.000061557
  12   H   :   -0.000161612   -0.000089216    0.000063000
  13   H   :   -0.000202717    0.000134498    0.000032044
  14   H   :   -0.000141014   -0.000068917   -0.000002277
  15   H   :   -0.000025170    0.000125161    0.000045425
  16   H   :   -0.000126871    0.000121551   -0.000020843
  17   H   :   -0.000155667    0.000181957   -0.000010726
  18   H   :   -0.000007608    0.000209639   -0.000066089
  19   H   :   -0.000261149    0.000245750   -0.000200524
  20   H   :   -0.000021771   -0.000055964    0.000083925
  21   H   :   -0.000128036   -0.000009237   -0.000126979
  22   H   :    0.000033197   -0.000108579   -0.000077021

Difference to translation invariance:
           :    0.0000000000    0.0000000000   -0.0000000000

Difference to rotation invariance:
           :    0.0001053395    0.0000409576    0.0000829919

Norm of the Cartesian gradient     ...    0.0016695448
RMS gradient                       ...    0.0002055068
MAX gradient                       ...    0.0006390286
------------------------------------------------------------------------------
                         ORCA GEOMETRY RELAXATION STEP
------------------------------------------------------------------------------

Reading the OPT-File                    .... done
Getting information on internals        .... done
Copying old internal coords+grads       .... done
Making the new internal coordinates     .... (2022 redundants) done
Validating the new internal coordinates .... (2022 redundants) done
Calculating the B-matrix                .... done
Calculating the G,G- and P matrices     .... done
Transforming gradient to internals      .... done
Projecting the internal gradient        .... done
Number of atoms                         ....  22
Number of internal coordinates          ....  92
Current Energy                          ....   -32.991308322 Eh
Current gradient norm                   ....     0.001669545 Eh/bohr
Maximum allowed component of the step   ....  0.300
Current trust radius                    ....  0.700
Updating the Hessian (BFGS)             .... done
Forming the augmented Hessian           .... done
Diagonalizing the augmented Hessian     .... done
Last element of RFO vector              ....  0.993463928
Lowest eigenvalues of augmented Hessian:
 -0.000022003  0.000778260  0.001774746  0.004976641  0.011167042
Length of the computed step             ....  0.114897483
The final length of the internal step   ....  0.114897483
Converting the step to Cartesian space:
 Initial RMS(Int)=    0.0119788906
Transforming coordinates:
 Iter   0:  RMS(Cart)=    0.0201667556 RMS(Int)=    0.0119760922
done
Storing new coordinates                 .... done
The predicted energy change is          ....    -0.000011147
Previously predicted energy change      ....    -0.000009898
Actually observed energy change         ....    -0.000014676
Ratio of predicted to observed change   ....     1.482694136
New trust radius                        ....     0.700000000

                                .--------------------.
          ----------------------|Geometry convergence|-------------------------
          Item                value                   Tolerance       Converged
          ---------------------------------------------------------------------
          Energy change      -0.0000146756            0.0000050000      NO
          RMS gradient        0.0001273452            0.0001000000      NO
          MAX gradient        0.0004834229            0.0003000000      NO
          RMS step            0.0119788906            0.0020000000      NO
          MAX step            0.0517958617            0.0040000000      NO
          -------------------------------------------------------------------------
          ........................................................
          Max(Bonds)      0.0009      Max(Angles)    0.22
          Max(Dihed)        2.97      Max(Improp)    0.00
          ---------------------------------------------------------------------

The optimization has not yet converged - more geometry cycles are needed


    ---------------------------------------------------------------------------
                         Redundant Internal Coordinates
                            (Angstroem and degrees)

        Definition                    Value    dE/dq     Step     New-Value
    ----------------------------------------------------------------------------
     1. B(C   1,C   0)                1.5052 -0.000154  0.0004    1.5057   
     2. B(O   2,C   1)                1.2321  0.000154 -0.0003    1.2318   
     3. B(N   3,C   1)                1.3407  0.000166 -0.0002    1.3405   
     4. B(C   4,N   3)                1.4553  0.000302  0.0001    1.4554   
     5. B(C   5,C   4)                1.5199 -0.000058 -0.0001    1.5198   
     6. B(C   6,C   4)                1.5439  0.000156 -0.0000    1.5438   
     7. B(O   7,C   6)                1.2265 -0.000107 -0.0002    1.2263   
     8. B(N   8,C   6)                1.3339  0.000065 -0.0002    1.3337   
     9. B(C   9,N   8)                1.4456 -0.000020  0.0004    1.4460   
    10. B(H  10,C   0)                1.0879  0.000090 -0.0003    1.0876   
    11. B(H  11,C   0)                1.0854 -0.000037  0.0002    1.0856   
    12. B(H  12,C   0)                1.0858  0.000013 -0.0002    1.0857   
    13. B(H  13,N   3)                1.0089 -0.000001 -0.0001    1.0088   
    14. B(H  14,C   4)                1.0964 -0.000027 -0.0003    1.0962   
    15. B(H  15,C   5)                1.0858 -0.000002 -0.0001    1.0857   
    16. B(H  16,C   5)                1.0874  0.000023 -0.0001    1.0873   
    17. B(H  17,C   5)                1.0856 -0.000053  0.0000    1.0856   
    18. B(H  18,O   2)                2.0084  0.000005  0.0009    2.0093   
    19. B(H  18,N   8)                1.0156  0.000018 -0.0001    1.0155   
    20. B(H  19,C   9)                1.0902 -0.000003 -0.0001    1.0900   
    21. B(H  20,C   9)                1.0888  0.000034 -0.0003    1.0885   
    22. B(H  21,C   9)                1.0890  0.000045  0.0001    1.0891   
    23. A(H  11,C   0,H  12)          110.08  0.000229   -0.13    109.95   
    24. A(C   1,C   0,H  11)          110.83  0.000001   -0.14    110.69   
    25. A(C   1,C   0,H  12)          109.19 -0.000021   -0.01    109.17   
    26. A(C   1,C   0,H  10)          109.08 -0.000102    0.14    109.23   
    27. A(H  10,C   0,H  12)          108.63 -0.000186    0.22    108.85   
    28. A(H  10,C   0,H  11)          108.99  0.000074   -0.07    108.92   
    29. A(O   2,C   1,N   3)          122.02  0.000064    0.04    122.06   
    30. A(C   0,C   1,N   3)          115.06  0.000250   -0.08    114.99   
    31. A(C   0,C   1,O   2)          122.92 -0.000315    0.04    122.96   
    32. A(C   4,N   3,H  13)          116.67 -0.000101   -0.02    116.65   
    33. A(C   1,N   3,C   4)          123.31 -0.000037    0.03    123.34   
    34. A(C   1,N   3,H  13)          119.87  0.000130    0.07    119.94   
    35. A(C   5,C   4,C   6)          111.19  0.000099   -0.02    111.18   
    36. A(N   3,C   4,C   5)          110.03  0.000039   -0.04    110.00   
    37. A(N   3,C   4,C   6)          109.53 -0.000181   -0.06    109.47   
    38. A(C   6,C   4,H  14)          107.85 -0.000046    0.01    107.85   
    39. A(C   5,C   4,H  14)          111.13  0.000100    0.01    111.15   
    40. A(N   3,C   4,H  14)          106.99 -0.000022    0.09    107.08   
    41. A(H  16,C   5,H  17)          110.11  0.000243   -0.05    110.06   
    42. A(C   4,C   5,H  17)          110.37 -0.000197    0.02    110.39   
    43. A(H  15,C   5,H  16)          107.90  0.000131   -0.02    107.88   
    44. A(C   4,C   5,H  16)          109.65 -0.000263    0.03    109.68   
    45. A(C   4,C   5,H  15)          109.48 -0.000125    0.04    109.52   
    46. A(H  15,C   5,H  17)          109.29  0.000219   -0.02    109.27   
    47. A(O   7,C   6,N   8)          124.25  0.000112   -0.04    124.20   
    48. A(C   4,C   6,N   8)          113.27 -0.000017   -0.02    113.25   
    49. A(C   4,C   6,O   7)          122.48 -0.000095    0.06    122.54   
    50. A(C   9,N   8,H  18)          117.71 -0.000257   -0.13    117.58   
    51. A(C   6,N   8,H  18)          118.64  0.000483    0.15    118.80   
    52. A(C   6,N   8,C   9)          123.22 -0.000223    0.01    123.23   
    53. A(N   8,C   9,H  19)          110.53  0.000029   -0.04    110.49   
    54. A(H  20,C   9,H  21)          109.64 -0.000086   -0.02    109.61   
    55. A(H  19,C   9,H  21)          109.36  0.000104    0.02    109.38   
    56. A(N   8,C   9,H  21)          109.77 -0.000179   -0.06    109.71   
    57. A(H  19,C   9,H  20)          109.48 -0.000037   -0.01    109.48   
    58. A(N   8,C   9,H  20)          108.04  0.000168    0.11    108.15   
    59. D(O   2,C   1,C   0,H  10)    105.61 -0.000165    2.97    108.58   
    60. D(O   2,C   1,C   0,H  11)   -134.39 -0.000139    2.89   -131.50   
    61. D(N   3,C   1,C   0,H  11)     45.72 -0.000075    2.83     48.55   
    62. D(N   3,C   1,C   0,H  10)    -74.28 -0.000101    2.91    -71.37   
    63. D(O   2,C   1,C   0,H  12)    -12.97  0.000132    2.63    -10.34   
    64. D(H  13,N   3,C   1,C   0)      5.54  0.000046   -0.23      5.31   
    65. D(C   4,N   3,C   1,C   0)   -178.86 -0.000079    0.19   -178.67   
    66. D(H  13,N   3,C   1,O   2)   -174.35  0.000110   -0.29   -174.64   
    67. D(C   4,N   3,C   1,O   2)      1.25 -0.000015    0.14      1.38   
    68. D(H  14,C   4,N   3,C   1)     34.82 -0.000035   -0.07     34.74   
    69. D(C   6,C   4,N   3,H  13)     93.90  0.000013    0.32     94.22   
    70. D(C   6,C   4,N   3,C   1)    -81.82  0.000125   -0.10    -81.92   
    71. D(C   5,C   4,N   3,H  13)    -28.62 -0.000017    0.40    -28.22   
    72. D(C   5,C   4,N   3,C   1)    155.66  0.000095   -0.02    155.64   
    73. D(H  15,C   5,C   4,N   3)   -174.41 -0.000106   -0.42   -174.83   
    74. D(H  16,C   5,C   4,H  14)   -174.29  0.000026   -0.33   -174.62   
    75. D(H  16,C   5,C   4,C   6)    -54.14  0.000102   -0.32    -54.46   
    76. D(H  16,C   5,C   4,N   3)     67.39 -0.000034   -0.43     66.96   
    77. D(H  15,C   5,C   4,H  14)    -56.10 -0.000046   -0.31    -56.41   
    78. D(H  15,C   5,C   4,C   6)     64.06  0.000030   -0.31     63.75   
    79. D(N   8,C   6,C   4,C   5)   -164.51 -0.000006   -0.24   -164.75   
    80. D(N   8,C   6,C   4,N   3)     73.67  0.000002   -0.14     73.52   
    81. D(O   7,C   6,C   4,H  14)    137.75  0.000115   -0.22    137.52   
    82. D(O   7,C   6,C   4,C   5)     15.67 -0.000041   -0.24     15.43   
    83. D(O   7,C   6,C   4,N   3)   -106.16 -0.000033   -0.14   -106.30   
    84. D(H  18,N   8,C   6,O   7)    174.66 -0.000014    0.10    174.75   
    85. D(H  18,N   8,C   6,C   4)     -5.16 -0.000049    0.10     -5.06   
    86. D(C   9,N   8,C   6,O   7)      2.32 -0.000022   -0.03      2.28   
    87. D(C   9,N   8,C   6,C   4)   -177.50 -0.000058   -0.03   -177.53   
    88. D(H  19,C   9,N   8,H  18)    -60.04 -0.000070    0.39    -59.65   
    89. D(H  19,C   9,N   8,C   6)    112.36 -0.000009    0.56    112.92   
    90. D(H  21,C   9,N   8,C   6)   -126.92  0.000023    0.52   -126.41   
    91. D(H  20,C   9,N   8,H  18)   -179.81 -0.000146    0.36   -179.46   
    92. D(H  20,C   9,N   8,C   6)     -7.41 -0.000084    0.52     -6.88   
    ----------------------------------------------------------------------------

Geometry step timings:
Preparation and reading OPT file:      0.001 s ( 3.195 %)
Internal coordinates            :      0.000 s ( 0.194 %)
B/P matrices and projection     :      0.002 s ( 7.373 %)
Hessian update/contruction      :      0.017 s (49.397 %)
Making the step                 :      0.002 s ( 6.713 %)
Converting the step to Cartesian:      0.000 s ( 0.582 %)
Storing new data                :      0.005 s (15.327 %)
Checking convergence            :      0.000 s ( 0.301 %)
Final printing                  :      0.006 s (16.914 %)
Total time                      :      0.034 s

Time for energy+gradient        :      0.151 s
Time for complete geometry iter :      0.214 s

         *************************************************************
         *                GEOMETRY OPTIMIZATION CYCLE  16            *
         *************************************************************
---------------------------------
CARTESIAN COORDINATES (ANGSTROEM)
---------------------------------
  C     2.234248    1.753923    1.163353
  C     1.444996    1.034475    0.101992
  O     1.171418    1.539686   -0.987574
  N     1.056035   -0.205976    0.428943
  C     0.309282   -1.073144   -0.470336
  C     0.535595   -2.528547   -0.095778
  C    -1.189711   -0.708459   -0.410263
  O    -2.017636   -1.412594    0.157737
  N    -1.478275    0.437043   -1.029301
  C    -2.806391    1.008058   -1.060503
  H     1.571691    2.020028    1.983777
  H     3.029966    1.121362    1.544497
  H     2.653089    2.662551    0.741824
  H     1.227179   -0.558433    1.358580
  H     0.665055   -0.866319   -1.486323
  H     0.050461   -3.170423   -0.824811
  H     0.090112   -2.730199    0.875358
  H     1.597622   -2.752297   -0.071922
  H    -0.717493    0.995721   -1.403871
  H    -2.835168    1.938199   -0.492894
  H    -3.494440    0.290717   -0.616869
  H    -3.097631    1.204626   -2.091355

----------------------------
CARTESIAN COORDINATES (A.U.)
----------------------------
  NO LB    ZA    FRAG    MASS        X           Y           Z
   0 C   6.0000    0    12.011    4.222117    3.314435    2.198419
   1 C   6.0000    0    12.011    2.730647    1.954874    0.192737
   2 O   8.0000    0    15.999    2.213660    2.909585   -1.866244
   3 N   7.0000    0    14.007    1.995616   -0.389239    0.810585
   4 C   6.0000    0    12.011    0.584458   -2.027949   -0.888805
   5 C   6.0000    0    12.011    1.012128   -4.778262   -0.180994
   6 C   6.0000    0    12.011   -2.248229   -1.338793   -0.775284
   7 O   8.0000    0    15.999   -3.812780   -2.669416    0.298079
   8 N   7.0000    0    14.007   -2.793535    0.825892   -1.945097
   9 C   6.0000    0    12.011   -5.303310    1.904954   -2.004060
  10 H   1.0000    0     1.008    2.970066    3.817299    3.748796
  11 H   1.0000    0     1.008    5.725806    2.119066    2.918676
  12 H   1.0000    0     1.008    5.013612    5.031493    1.401844
  13 H   1.0000    0     1.008    2.319032   -1.055286    2.567343
  14 H   1.0000    0     1.008    1.256772   -1.637105   -2.808744
  15 H   1.0000    0     1.008    0.095358   -5.991231   -1.558667
  16 H   1.0000    0     1.008    0.170287   -5.159328    1.654188
  17 H   1.0000    0     1.008    3.019068   -5.201087   -0.135913
  18 H   1.0000    0     1.008   -1.355865    1.881640   -2.652932
  19 H   1.0000    0     1.008   -5.357691    3.662666   -0.931434
  20 H   1.0000    0     1.008   -6.603535    0.549376   -1.165714
  21 H   1.0000    0     1.008   -5.853675    2.276414   -3.952087

      -----------------------------------------------------------      
     |                   =====================                   |     
     |                           x T B                           |     
     |                   =====================                   |     
     |                         S. Grimme                         |     
     |          Mulliken Center for Theoretical Chemistry        |     
     |                    University of Bonn                     |     
      -----------------------------------------------------------      

   * xtb version 6.7.1 (edcfbbe) compiled by 'albert@albert-system' on 2024-07-22

   xtb is free software: you can redistribute it and/or modify it under
   the terms of the GNU Lesser General Public License as published by
   the Free Software Foundation, either version 3 of the License, or
   (at your option) any later version.
   
   xtb is distributed in the hope that it will be useful,
   but WITHOUT ANY WARRANTY; without even the implied warranty of
   MERCHANTABILITY or FITNESS FOR A PARTICULAR PURPOSE.  See the
   GNU Lesser General Public License for more details.
   
   Cite this work as:
   * C. Bannwarth, E. Caldeweyher, S. Ehlert, A. Hansen, P. Pracht,
     J. Seibert, S. Spicher, S. Grimme, WIREs Comput. Mol. Sci., 2020, 11,
     e01493. DOI: 10.1002/wcms.1493
   
   for GFN2-xTB:
   * C. Bannwarth, S. Ehlert and S. Grimme., J. Chem. Theory Comput., 2019,
     15, 1652-1671. DOI: 10.1021/acs.jctc.8b01176
   for GFN1-xTB:
   * S. Grimme, C. Bannwarth, P. Shushkov, J. Chem. Theory Comput., 2017,
     13, 1989-2009. DOI: 10.1021/acs.jctc.7b00118
   for GFN0-xTB:
   * P. Pracht, E. Caldeweyher, S. Ehlert, S. Grimme, ChemRxiv, 2019, preprint.
     DOI: 10.26434/chemrxiv.8326202.v1
   for GFN-FF:
   * S. Spicher and S. Grimme, Angew. Chem. Int. Ed., 2020, 59, 15665-15673.
     DOI: 10.1002/anie.202004239
   
   for ALPB and GBSA implicit solvation:
   * S. Ehlert, M. Stahn, S. Spicher, S. Grimme, J. Chem. Theory Comput.,
     2021, 17, 4250-4261. DOI: 10.1021/acs.jctc.1c00471
   
   for ddCOSMO and CPCM-X implicit solvation:
   * M. Stahn, S. Ehlert, S. Grimme, J. Phys. Chem. A,
     2023, XX, XXXX-XXXX. DOI: 10.1021/acs.jpca.3c04382
   
   for DFT-D4:
   * E. Caldeweyher, C. Bannwarth and S. Grimme, J. Chem. Phys., 2017,
     147, 034112. DOI: 10.1063/1.4993215
   * E. Caldeweyher, S. Ehlert, A. Hansen, H. Neugebauer, S. Spicher,
     C. Bannwarth and S. Grimme, J. Chem. Phys., 2019, 150, 154122.
     DOI: 10.1063/1.5090222
   * E. Caldeweyher, J.-M. Mewes, S. Ehlert and S. Grimme, Phys. Chem. Chem. Phys.
     2020, 22, 8499-8512. DOI: 10.1039/D0CP00502A
   
   for sTDA-xTB:
   * S. Grimme and C. Bannwarth, J. Chem. Phys., 2016, 145, 054103.
     DOI: 10.1063/1.4959605
   
   in the mass-spec context:
   * V. Asgeirsson, C. Bauer and S. Grimme, Chem. Sci., 2017, 8, 4879.
     DOI: 10.1039/c7sc00601b
   * J. Koopman and S. Grimme, ACS Omega 2019, 4, 12, 15120-15133.
     DOI: 10.1021/acsomega.9b02011
   
   for metadynamics refer to:
   * S. Grimme, J. Chem. Theory Comput., 2019, 155, 2847-2862
     DOI: 10.1021/acs.jctc.9b00143
   
   for SPH calculations refer to:
   * S. Spicher and S. Grimme, J. Chem. Theory Comput., 2021, 17, 1701-1714
     DOI: 10.1021/acs.jctc.0c01306
   
   for ONIOM refer to:
   * C. Plett, A. Katbashev, S. Ehlert, S. Grimme, M. Bursch,
     Phys. Chem. Chem. Phys., 2023, 25, 17860-17868. DOI: 10.1039/D3CP02178E
   
   for DIPRO refer to:
   * J. Kohn, N. Gildemeister, S. Grimme, D. Fazzi, A. Hansen,
     J. Chem. Phys., 2023, just accepted.
   
   for PTB refer to:
   * S. Grimme, M. Mueller, A. Hansen, J. Chem. Phys., 2023, 158, 124111.
     DOI: 10.1063/5.0137838
   
   with help from (in alphabetical order)
   P. Atkinson, C. Bannwarth, F. Bohle, G. Brandenburg, E. Caldeweyher
   M. Checinski, S. Dohm, S. Ehlert, S. Ehrlich, I. Gerasimov, C. Hölzer
   A. Katbashev, J. Kohn, J. Koopman, C. Lavigne, S. Lehtola, F. März, M. Müller,
   F. Musil, H. Neugebauer, J. Pisarek, C. Plett, P. Pracht, F. Pultar,
   J. Seibert, P. Shushkov, S. Spicher, M. Stahn, M. Steiner, T. Strunk,
   J. Stückrath, T. Rose, and J. Unsleber
   
 * started run on 2026/09/28 at 23:19:04.766     
   ID    Z sym.   atoms
    1    6 C      1, 2, 5-7, 10
    2    8 O      3, 8
    3    7 N      4, 9
    4    1 H      11-22

           -------------------------------------------------
          |                Calculation Setup                |
           -------------------------------------------------

          program call               : /app1/ebapps/arches/flat-avx2/software/ORCA/6.1.0-gompi-2023b-avx2/bin/otool_xtb o01-xtb-opt-freq_XTB.xyz --grad -c 0 -u 0 -P 8 --namespace o01-xtb-opt-freq --input o01-xtb-opt-freq_XTB.input.tmp --alpb WATER --acc 0.200000
          hostname                   : IN-006
          calculation namespace      : o01-xtb-opt-freq
          coordinate file            : o01-xtb-opt-freq_XTB.xyz
          omp threads                :                     8


           -------------------------------------------------
          |                 G F N 2 - x T B                 |
           -------------------------------------------------

        Reference                      10.1021/acs.jctc.8b01176
      * Hamiltonian:
        H0-scaling (s, p, d)           1.850000    2.230000    2.230000
        zeta-weighting                 0.500000
      * Dispersion:
        s8                             2.700000
        a1                             0.520000
        a2                             5.000000
        s9                             5.000000
      * Repulsion:
        kExp                           1.500000    1.000000
        rExp                           1.000000
      * Coulomb:
        alpha                          2.000000
        third order                    shell-resolved
        anisotropic                    true
        a3                             3.000000
        a5                             4.000000
        cn-shift                       1.200000
        cn-exp                         4.000000
        max-rad                        5.000000

      * Solvation model:               ALPB
        Solvent                        WATER
        Parameter file                 internal GFN2-xTB/ALPB
        Dielectric constant                8.0200E+01
        Reference state                gsolv [1 M gas/solution]
        Free energy shift                  1.0808E-03 Eh       6.7819E-01 kcal/mol
        Temperature                        2.9815E+02 K
        Density                            1.0000E+00 kg/L
        Solvent mass                       1.8000E+01 g/mol
        Interaction kernel             P16
        Born radius scaling (c1)           1.4744E+00
        Born radii integrator          GBOBC
        Born offset                        0.0000E+00 a0       0.0000E+00 AA
        H-bond correction              true
        Ion screening                  false
        Surface tension                    1.0000E-05 Eh       1.5569E+01 dyn/cm
        Grid points                               230 per atom
q/qsh data taken from xtbrestart
CAMM data taken from xtbrestart

          ...................................................
          :                      SETUP                      :
          :.................................................:
          :  # basis functions                  52          :
          :  # atomic orbitals                  52          :
          :  # shells                           32          :
          :  # electrons                        58          :
          :  max. iterations                   250          :
          :  Hamiltonian                  GFN2-xTB          :
          :  restarted?                       true          :
          :  GBSA solvation                   true          :
          :  PC potential                    false          :
          :  electronic temp.          300.0000000     K    :
          :  accuracy                    0.2000000          :
          :  -> integral cutoff          0.3198970E+02      :
          :  -> integral neglect         0.2000000E-08      :
          :  -> SCF convergence          0.2000000E-06 Eh   :
          :  -> wf. convergence          0.2000000E-04 e    :
          :  Broyden damping             0.4000000          :
          :  net charge                          0          :
          :  unpaired electrons                  0          :
          ...................................................

 iter      E             dE          RMSdq      gap      omega  full diag
   1    -33.3794081 -0.333794E+02  0.371E-02    4.59       0.0  T
   2    -33.3794082 -0.140784E-06  0.223E-02    4.59       1.0  T
   3    -33.3794082 -0.884793E-08  0.147E-03    4.59      14.5  T
   4    -33.3794082 -0.242154E-07  0.565E-04    4.59      37.8  T
   5    -33.3794082 -0.846846E-09  0.260E-04    4.59      82.0  T
   6    -33.3794082 -0.747988E-10  0.364E-05    4.59     585.8  T
   7    -33.3794082 -0.276401E-11  0.193E-05    4.59    1104.0  T

   *** convergence criteria satisfied after 7 iterations ***

         #    Occupation            Energy/Eh            Energy/eV
      -------------------------------------------------------------
         1        2.0000           -0.7089792             -19.2923
       ...           ...                  ...                  ...
        23        2.0000           -0.4655686             -12.6688
        24        2.0000           -0.4622785             -12.5792
        25        2.0000           -0.4552489             -12.3880
        26        2.0000           -0.4331004             -11.7853
        27        2.0000           -0.4081538             -11.1064
        28        2.0000           -0.4028454             -10.9620
        29        2.0000           -0.3907282             -10.6323 (HOMO)
        30                         -0.2221632              -6.0454 (LUMO)
        31                         -0.2127461              -5.7891
        32                          0.0042879               0.1167
        33                          0.0069606               0.1894
        34                          0.0864261               2.3518
       ...                                ...                  ...
        52                          0.6075081              16.5311
      -------------------------------------------------------------
                  HL-Gap            0.1685649 Eh            4.5869 eV
             Fermi-level           -0.3064457 Eh           -8.3388 eV

 SCC (total)                   0 d,  0 h,  0 min,  0.010 sec
 SCC setup                      ...        0 min,  0.000 sec (  4.128%)
 Dispersion                     ...        0 min,  0.000 sec (  1.629%)
 classical contributions        ...        0 min,  0.000 sec (  0.205%)
 integral evaluation            ...        0 min,  0.001 sec (  7.125%)
 iterations                     ...        0 min,  0.007 sec ( 69.606%)
 molecular gradient             ...        0 min,  0.002 sec ( 16.054%)
 printout                       ...        0 min,  0.000 sec (  1.024%)

         :::::::::::::::::::::::::::::::::::::::::::::::::::::
         ::                     SUMMARY                     ::
         :::::::::::::::::::::::::::::::::::::::::::::::::::::
         :: total energy             -32.991324702337 Eh    ::
         :: total w/o Gsasa/hb       -32.988960263178 Eh    ::
         :: gradient norm              0.002132608319 Eh/a0 ::
         :: HOMO-LUMO gap              4.586885631061 eV    ::
         ::.................................................::
         :: SCC energy               -33.379303329879 Eh    ::
         :: -> isotropic ES            0.104246329441 Eh    ::
         :: -> anisotropic ES          0.001154632077 Eh    ::
         :: -> anisotropic XC          0.010769321125 Eh    ::
         :: -> dispersion             -0.015449117586 Eh    ::
         :: -> Gsolv                  -0.020295725496 Eh    ::
         ::    -> Gelec               -0.017931286336 Eh    ::
         ::    -> Gsasa                0.001578736353 Eh    ::
         ::    -> Ghb                 -0.005023935211 Eh    ::
         ::    -> Gshift               0.001080759698 Eh    ::
         :: repulsion energy           0.387978627542 Eh    ::
         :: add. restraining           0.000000000000 Eh    ::
         :: total charge              -0.000000000000 e     ::
         :::::::::::::::::::::::::::::::::::::::::::::::::::::


Property printout bound to 'properties.out'

           -------------------------------------------------
          | TOTAL ENERGY              -32.991324702337 Eh   |
          | GRADIENT NORM               0.002132608319 Eh/α |
          | HOMO-LUMO GAP               4.586885631061 eV   |
           -------------------------------------------------

------------------------------------------------------------------------
 * finished run on 2026/09/28 at 23:19:04.829     
------------------------------------------------------------------------
 total:
 * wall-time:     0 d,  0 h,  0 min,  0.061 sec
 *  cpu-time:     0 d,  0 h,  0 min,  0.400 sec
 * ratio c/w:     6.499 speedup
 SCF:
 * wall-time:     0 d,  0 h,  0 min,  0.010 sec
 *  cpu-time:     0 d,  0 h,  0 min,  0.083 sec
 * ratio c/w:     7.911 speedup


-------------------------   --------------------
FINAL SINGLE POINT ENERGY       -32.991324702340
-------------------------   --------------------


-------------
DIPOLE MOMENT
-------------
                                X             Y             Z
Total Dipole Moment    :      1.10800       0.32500       0.77300
                        -----------------------------------------
Magnitude (a.u.)       :      1.38954
Magnitude (Debye)      :      3.53193


------------------
CARTESIAN GRADIENT
------------------

   1   C   :    0.000366447   -0.000012725   -0.000160370
   2   C   :   -0.000237799   -0.000181317   -0.000112723
   3   O   :    0.000021796    0.000162950    0.000192152
   4   N   :    0.000427742    0.000314857    0.000429992
   5   C   :    0.000169338   -0.000557011   -0.000650541
   6   C   :    0.000165598   -0.000280883    0.000096262
   7   C   :   -0.000654154   -0.000012732    0.000327335
   8   O   :    0.000183125    0.000277263   -0.000169585
   9   N   :    0.001026638   -0.000433111    0.000076854
  10   C   :   -0.000100819    0.000045870    0.000395659
  11   H   :   -0.000063167    0.000092133   -0.000051265
  12   H   :   -0.000118011   -0.000030740    0.000091951
  13   H   :   -0.000165354    0.000001613    0.000002641
  14   H   :   -0.000167792   -0.000128803   -0.000091037
  15   H   :   -0.000100426    0.000046101    0.000121307
  16   H   :   -0.000086186    0.000105558    0.000048781
  17   H   :   -0.000074336    0.000142962   -0.000036949
  18   H   :   -0.000034763    0.000165100   -0.000040369
  19   H   :   -0.000456943    0.000362887   -0.000229548
  20   H   :   -0.000019820   -0.000102493    0.000083018
  21   H   :   -0.000173708    0.000183171   -0.000182160
  22   H   :    0.000092595   -0.000160653   -0.000141404

Difference to translation invariance:
           :    0.0000000000   -0.0000000000   -0.0000000000

Difference to rotation invariance:
           :    0.0001206368    0.0000579948    0.0001175994

Norm of the Cartesian gradient     ...    0.0021326083
RMS gradient                       ...    0.0002625059
MAX gradient                       ...    0.0010266378
------------------------------------------------------------------------------
                         ORCA GEOMETRY RELAXATION STEP
------------------------------------------------------------------------------

Reading the OPT-File                    .... done
Getting information on internals        .... done
Copying old internal coords+grads       .... done
Making the new internal coordinates     .... (2022 redundants) done
Validating the new internal coordinates .... (2022 redundants) done
Calculating the B-matrix                .... done
Calculating the G,G- and P matrices     .... done
Transforming gradient to internals      .... done
Projecting the internal gradient        .... done
Number of atoms                         ....  22
Number of internal coordinates          ....  92
Current Energy                          ....   -32.991324702 Eh
Current gradient norm                   ....     0.002132608 Eh/bohr
Maximum allowed component of the step   ....  0.300
Current trust radius                    ....  0.700
Updating the Hessian (BFGS)             .... done
Forming the augmented Hessian           .... done
Diagonalizing the augmented Hessian     .... done
Last element of RFO vector              ....  0.991038775
Lowest eigenvalues of augmented Hessian:
 -0.000023114  0.000616905  0.001425784  0.004779355  0.011120638
Length of the computed step             ....  0.134782309
The final length of the internal step   ....  0.134782309
Converting the step to Cartesian space:
 Initial RMS(Int)=    0.0140520271
Transforming coordinates:
 Iter   0:  RMS(Cart)=    0.0231319947 RMS(Int)=    0.0140486046
done
Storing new coordinates                 .... done
The predicted energy change is          ....    -0.000011767
Previously predicted energy change      ....    -0.000011147
Actually observed energy change         ....    -0.000016381
Ratio of predicted to observed change   ....     1.469579164
New trust radius                        ....     0.700000000

                                .--------------------.
          ----------------------|Geometry convergence|-------------------------
          Item                value                   Tolerance       Converged
          ---------------------------------------------------------------------
          Energy change      -0.0000163808            0.0000050000      NO
          RMS gradient        0.0001575812            0.0001000000      NO
          MAX gradient        0.0007070791            0.0003000000      NO
          RMS step            0.0140520271            0.0020000000      NO
          MAX step            0.0603194127            0.0040000000      NO
          -------------------------------------------------------------------------
          ........................................................
          Max(Bonds)      0.0017      Max(Angles)    0.27
          Max(Dihed)        3.46      Max(Improp)    0.00
          ---------------------------------------------------------------------

The optimization has not yet converged - more geometry cycles are needed


    ---------------------------------------------------------------------------
                         Redundant Internal Coordinates
                            (Angstroem and degrees)

        Definition                    Value    dE/dq     Step     New-Value
    ----------------------------------------------------------------------------
     1. B(C   1,C   0)                1.5057 -0.000050  0.0005    1.5061   
     2. B(O   2,C   1)                1.2318 -0.000104 -0.0003    1.2315   
     3. B(N   3,C   1)                1.3405 -0.000025 -0.0002    1.3403   
     4. B(C   4,N   3)                1.4554  0.000335 -0.0003    1.4552   
     5. B(C   5,C   4)                1.5198 -0.000112 -0.0000    1.5197   
     6. B(C   6,C   4)                1.5439  0.000128 -0.0003    1.5436   
     7. B(O   7,C   6)                1.2263 -0.000361 -0.0000    1.2263   
     8. B(N   8,C   6)                1.3337 -0.000165 -0.0001    1.3336   
     9. B(C   9,N   8)                1.4460  0.000167  0.0002    1.4462   
    10. B(H  10,C   0)                1.0876  0.000021 -0.0004    1.0872   
    11. B(H  11,C   0)                1.0856 -0.000036  0.0003    1.0859   
    12. B(H  12,C   0)                1.0857 -0.000063 -0.0001    1.0856   
    13. B(H  13,N   3)                1.0088 -0.000067 -0.0000    1.0088   
    14. B(H  14,C   4)                1.0962 -0.000138 -0.0000    1.0961   
    15. B(H  15,C   5)                1.0857 -0.000057 -0.0000    1.0857   
    16. B(H  16,C   5)                1.0873 -0.000026 -0.0000    1.0873   
    17. B(H  17,C   5)                1.0856 -0.000070  0.0001    1.0857   
    18. B(H  18,O   2)                2.0093  0.000016  0.0017    2.0110   
    19. B(H  18,N   8)                1.0155 -0.000045 -0.0001    1.0154   
    20. B(H  19,C   9)                1.0900 -0.000044 -0.0001    1.0899   
    21. B(H  20,C   9)                1.0885 -0.000087 -0.0001    1.0883   
    22. B(H  21,C   9)                1.0891  0.000082  0.0000    1.0891   
    23. A(H  11,C   0,H  12)          109.95  0.000158   -0.19    109.76   
    24. A(C   1,C   0,H  11)          110.69  0.000087   -0.18    110.51   
    25. A(C   1,C   0,H  12)          109.17 -0.000090    0.01    109.18   
    26. A(C   1,C   0,H  10)          109.23 -0.000099    0.19    109.42   
    27. A(H  10,C   0,H  12)          108.85 -0.000068    0.27    109.12   
    28. A(H  10,C   0,H  11)          108.92  0.000008   -0.08    108.84   
    29. A(O   2,C   1,N   3)          122.06  0.000137    0.02    122.08   
    30. A(C   0,C   1,N   3)          114.98  0.000157   -0.10    114.88   
    31. A(C   0,C   1,O   2)          122.95 -0.000294    0.08    123.04   
    32. A(C   4,N   3,H  13)          116.63 -0.000152    0.02    116.65   
    33. A(C   1,N   3,C   4)          123.33 -0.000095    0.04    123.38   
    34. A(C   1,N   3,H  13)          119.92  0.000240    0.02    119.95   
    35. A(C   5,C   4,C   6)          111.17  0.000136   -0.02    111.15   
    36. A(N   3,C   4,C   5)          109.99 -0.000013   -0.01    109.98   
    37. A(N   3,C   4,C   6)          109.47 -0.000257    0.02    109.50   
    38. A(C   6,C   4,H  14)          107.86 -0.000045   -0.00    107.85   
    39. A(C   5,C   4,H  14)          111.15  0.000091   -0.05    111.10   
    40. A(N   3,C   4,H  14)          107.08  0.000079    0.07    107.15   
    41. A(H  16,C   5,H  17)          110.06  0.000160   -0.09    109.96   
    42. A(C   4,C   5,H  17)          110.39 -0.000153    0.05    110.44   
    43. A(H  15,C   5,H  16)          107.88  0.000081   -0.02    107.86   
    44. A(C   4,C   5,H  16)          109.68 -0.000201    0.08    109.75   
    45. A(C   4,C   5,H  15)          109.52 -0.000050    0.05    109.57   
    46. A(H  15,C   5,H  17)          109.27  0.000170   -0.07    109.20   
    47. A(O   7,C   6,N   8)          124.20 -0.000086   -0.04    124.16   
    48. A(C   4,C   6,N   8)          113.26 -0.000039   -0.02    113.24   
    49. A(C   4,C   6,O   7)          122.54  0.000125    0.05    122.59   
    50. A(C   9,N   8,H  18)          117.57 -0.000445   -0.04    117.53   
    51. A(C   6,N   8,H  18)          118.79  0.000707    0.02    118.81   
    52. A(C   6,N   8,C   9)          123.22 -0.000259    0.05    123.27   
    53. A(N   8,C   9,H  19)          110.49 -0.000002   -0.05    110.43   
    54. A(H  20,C   9,H  21)          109.61 -0.000118    0.01    109.63   
    55. A(H  19,C   9,H  21)          109.38  0.000158   -0.01    109.37   
    56. A(N   8,C   9,H  21)          109.71 -0.000355    0.01    109.73   
    57. A(H  19,C   9,H  20)          109.48 -0.000129    0.01    109.49   
    58. A(N   8,C   9,H  20)          108.15  0.000446    0.03    108.18   
    59. D(O   2,C   1,C   0,H  10)    108.58 -0.000115    3.46    112.04   
    60. D(O   2,C   1,C   0,H  11)   -131.50 -0.000114    3.37   -128.13   
    61. D(N   3,C   1,C   0,H  11)     48.55 -0.000050    3.28     51.83   
    62. D(N   3,C   1,C   0,H  10)    -71.37 -0.000050    3.37    -68.00   
    63. D(O   2,C   1,C   0,H  12)    -10.34  0.000079    3.02     -7.32   
    64. D(H  13,N   3,C   1,C   0)      5.31  0.000042   -0.31      5.00   
    65. D(C   4,N   3,C   1,C   0)   -178.67 -0.000082    0.36   -178.30   
    66. D(H  13,N   3,C   1,O   2)   -174.64  0.000107   -0.39   -175.04   
    67. D(C   4,N   3,C   1,O   2)      1.38 -0.000017    0.28      1.66   
    68. D(H  14,C   4,N   3,C   1)     34.74 -0.000026   -0.20     34.54   
    69. D(C   6,C   4,N   3,H  13)     94.22  0.000012    0.40     94.62   
    70. D(C   6,C   4,N   3,C   1)    -81.93  0.000118   -0.24    -82.17   
    71. D(C   5,C   4,N   3,H  13)    -28.22  0.000019    0.42    -27.80   
    72. D(C   5,C   4,N   3,C   1)    155.63  0.000125   -0.23    155.41   
    73. D(H  15,C   5,C   4,N   3)   -174.83 -0.000173   -0.26   -175.09   
    74. D(H  16,C   5,C   4,H  14)   -174.62  0.000026   -0.27   -174.89   
    75. D(H  16,C   5,C   4,C   6)    -54.46  0.000121   -0.32    -54.78   
    76. D(H  16,C   5,C   4,N   3)     66.96 -0.000121   -0.31     66.65   
    77. D(H  15,C   5,C   4,H  14)    -56.41 -0.000026   -0.22    -56.63   
    78. D(H  15,C   5,C   4,C   6)     63.75  0.000070   -0.27     63.48   
    79. D(N   8,C   6,C   4,C   5)   -164.75 -0.000055   -0.23   -164.98   
    80. D(N   8,C   6,C   4,N   3)     73.53  0.000046   -0.22     73.31   
    81. D(O   7,C   6,C   4,H  14)    137.52  0.000082   -0.32    137.21   
    82. D(O   7,C   6,C   4,C   5)     15.43 -0.000086   -0.24     15.19   
    83. D(O   7,C   6,C   4,N   3)   -106.29  0.000014   -0.23   -106.52   
    84. D(H  18,N   8,C   6,O   7)    174.76 -0.000017    0.15    174.91   
    85. D(H  18,N   8,C   6,C   4)     -5.06 -0.000050    0.15     -4.91   
    86. D(C   9,N   8,C   6,O   7)      2.28 -0.000021    0.08      2.36   
    87. D(C   9,N   8,C   6,C   4)   -177.54 -0.000054    0.08   -177.46   
    88. D(H  19,C   9,N   8,H  18)    -59.65 -0.000044    0.72    -58.92   
    89. D(H  19,C   9,N   8,C   6)    112.92  0.000041    0.83    113.75   
    90. D(H  21,C   9,N   8,C   6)   -126.41  0.000007    0.79   -125.62   
    91. D(H  20,C   9,N   8,H  18)   -179.45 -0.000160    0.73   -178.73   
    92. D(H  20,C   9,N   8,C   6)     -6.89 -0.000076    0.83     -6.05   
    ----------------------------------------------------------------------------

Geometry step timings:
Preparation and reading OPT file:      0.001 s ( 3.163 %)
Internal coordinates            :      0.000 s ( 0.190 %)
B/P matrices and projection     :      0.002 s ( 7.314 %)
Hessian update/contruction      :      0.017 s (50.189 %)
Making the step                 :      0.002 s ( 6.432 %)
Converting the step to Cartesian:      0.000 s ( 0.565 %)
Storing new data                :      0.005 s (16.092 %)
Checking convergence            :      0.000 s ( 0.249 %)
Final printing                  :      0.005 s (15.802 %)
Total time                      :      0.034 s

Time for energy+gradient        :      0.152 s
Time for complete geometry iter :      0.216 s

         *************************************************************
         *                GEOMETRY OPTIMIZATION CYCLE  17            *
         *************************************************************
---------------------------------
CARTESIAN COORDINATES (ANGSTROEM)
---------------------------------
  C     2.236485    1.751833    1.164453
  C     1.444219    1.035638    0.102494
  O     1.173599    1.539967   -0.987898
  N     1.051084   -0.202839    0.431339
  C     0.307605   -1.071860   -0.468437
  C     0.534035   -2.526336   -0.090546
  C    -1.191723   -0.708976   -0.413372
  O    -2.021853   -1.414529    0.149542
  N    -1.478787    0.437514   -1.031087
  C    -2.806784    1.009091   -1.065765
  H     1.591092    1.969163    2.011936
  H     3.063766    1.135071    1.502697
  H     2.616066    2.684292    0.758254
  H     1.225457   -0.556329    1.359934
  H     0.665659   -0.867742   -1.484133
  H     0.047858   -3.170709   -0.816667
  H     0.091251   -2.726539    0.882090
  H     1.595949   -2.751378   -0.067839
  H    -0.717436    0.996619   -1.403621
  H    -2.832671    1.945534   -0.508641
  H    -3.494568    0.297809   -0.612423
  H    -3.100299    1.194708   -2.098049

----------------------------
CARTESIAN COORDINATES (A.U.)
----------------------------
  NO LB    ZA    FRAG    MASS        X           Y           Z
   0 C   6.0000    0    12.011    4.226343    3.310484    2.200498
   1 C   6.0000    0    12.011    2.729179    1.957071    0.193685
   2 O   8.0000    0    15.999    2.217782    2.910116   -1.866857
   3 N   7.0000    0    14.007    1.986261   -0.383310    0.815113
   4 C   6.0000    0    12.011    0.581288   -2.025523   -0.885218
   5 C   6.0000    0    12.011    1.009179   -4.774084   -0.171107
   6 C   6.0000    0    12.011   -2.252031   -1.339771   -0.781159
   7 O   8.0000    0    15.999   -3.820748   -2.673073    0.282594
   8 N   7.0000    0    14.007   -2.794502    0.826781   -1.948472
   9 C   6.0000    0    12.011   -5.304053    1.906906   -2.014004
  10 H   1.0000    0     1.008    3.006728    3.721179    3.802009
  11 H   1.0000    0     1.008    5.789679    2.144973    2.839687
  12 H   1.0000    0     1.008    4.943649    5.072577    1.432893
  13 H   1.0000    0     1.008    2.315778   -1.051309    2.569903
  14 H   1.0000    0     1.008    1.257914   -1.639795   -2.804605
  15 H   1.0000    0     1.008    0.090438   -5.991772   -1.543277
  16 H   1.0000    0     1.008    0.172439   -5.152413    1.666908
  17 H   1.0000    0     1.008    3.015906   -5.199350   -0.128198
  18 H   1.0000    0     1.008   -1.355758    1.883337   -2.652460
  19 H   1.0000    0     1.008   -5.352973    3.676526   -0.961192
  20 H   1.0000    0     1.008   -6.603776    0.562778   -1.157313
  21 H   1.0000    0     1.008   -5.858715    2.257671   -3.964738

      -----------------------------------------------------------      
     |                   =====================                   |     
     |                           x T B                           |     
     |                   =====================                   |     
     |                         S. Grimme                         |     
     |          Mulliken Center for Theoretical Chemistry        |     
     |                    University of Bonn                     |     
      -----------------------------------------------------------      

   * xtb version 6.7.1 (edcfbbe) compiled by 'albert@albert-system' on 2024-07-22

   xtb is free software: you can redistribute it and/or modify it under
   the terms of the GNU Lesser General Public License as published by
   the Free Software Foundation, either version 3 of the License, or
   (at your option) any later version.
   
   xtb is distributed in the hope that it will be useful,
   but WITHOUT ANY WARRANTY; without even the implied warranty of
   MERCHANTABILITY or FITNESS FOR A PARTICULAR PURPOSE.  See the
   GNU Lesser General Public License for more details.
   
   Cite this work as:
   * C. Bannwarth, E. Caldeweyher, S. Ehlert, A. Hansen, P. Pracht,
     J. Seibert, S. Spicher, S. Grimme, WIREs Comput. Mol. Sci., 2020, 11,
     e01493. DOI: 10.1002/wcms.1493
   
   for GFN2-xTB:
   * C. Bannwarth, S. Ehlert and S. Grimme., J. Chem. Theory Comput., 2019,
     15, 1652-1671. DOI: 10.1021/acs.jctc.8b01176
   for GFN1-xTB:
   * S. Grimme, C. Bannwarth, P. Shushkov, J. Chem. Theory Comput., 2017,
     13, 1989-2009. DOI: 10.1021/acs.jctc.7b00118
   for GFN0-xTB:
   * P. Pracht, E. Caldeweyher, S. Ehlert, S. Grimme, ChemRxiv, 2019, preprint.
     DOI: 10.26434/chemrxiv.8326202.v1
   for GFN-FF:
   * S. Spicher and S. Grimme, Angew. Chem. Int. Ed., 2020, 59, 15665-15673.
     DOI: 10.1002/anie.202004239
   
   for ALPB and GBSA implicit solvation:
   * S. Ehlert, M. Stahn, S. Spicher, S. Grimme, J. Chem. Theory Comput.,
     2021, 17, 4250-4261. DOI: 10.1021/acs.jctc.1c00471
   
   for ddCOSMO and CPCM-X implicit solvation:
   * M. Stahn, S. Ehlert, S. Grimme, J. Phys. Chem. A,
     2023, XX, XXXX-XXXX. DOI: 10.1021/acs.jpca.3c04382
   
   for DFT-D4:
   * E. Caldeweyher, C. Bannwarth and S. Grimme, J. Chem. Phys., 2017,
     147, 034112. DOI: 10.1063/1.4993215
   * E. Caldeweyher, S. Ehlert, A. Hansen, H. Neugebauer, S. Spicher,
     C. Bannwarth and S. Grimme, J. Chem. Phys., 2019, 150, 154122.
     DOI: 10.1063/1.5090222
   * E. Caldeweyher, J.-M. Mewes, S. Ehlert and S. Grimme, Phys. Chem. Chem. Phys.
     2020, 22, 8499-8512. DOI: 10.1039/D0CP00502A
   
   for sTDA-xTB:
   * S. Grimme and C. Bannwarth, J. Chem. Phys., 2016, 145, 054103.
     DOI: 10.1063/1.4959605
   
   in the mass-spec context:
   * V. Asgeirsson, C. Bauer and S. Grimme, Chem. Sci., 2017, 8, 4879.
     DOI: 10.1039/c7sc00601b
   * J. Koopman and S. Grimme, ACS Omega 2019, 4, 12, 15120-15133.
     DOI: 10.1021/acsomega.9b02011
   
   for metadynamics refer to:
   * S. Grimme, J. Chem. Theory Comput., 2019, 155, 2847-2862
     DOI: 10.1021/acs.jctc.9b00143
   
   for SPH calculations refer to:
   * S. Spicher and S. Grimme, J. Chem. Theory Comput., 2021, 17, 1701-1714
     DOI: 10.1021/acs.jctc.0c01306
   
   for ONIOM refer to:
   * C. Plett, A. Katbashev, S. Ehlert, S. Grimme, M. Bursch,
     Phys. Chem. Chem. Phys., 2023, 25, 17860-17868. DOI: 10.1039/D3CP02178E
   
   for DIPRO refer to:
   * J. Kohn, N. Gildemeister, S. Grimme, D. Fazzi, A. Hansen,
     J. Chem. Phys., 2023, just accepted.
   
   for PTB refer to:
   * S. Grimme, M. Mueller, A. Hansen, J. Chem. Phys., 2023, 158, 124111.
     DOI: 10.1063/5.0137838
   
   with help from (in alphabetical order)
   P. Atkinson, C. Bannwarth, F. Bohle, G. Brandenburg, E. Caldeweyher
   M. Checinski, S. Dohm, S. Ehlert, S. Ehrlich, I. Gerasimov, C. Hölzer
   A. Katbashev, J. Kohn, J. Koopman, C. Lavigne, S. Lehtola, F. März, M. Müller,
   F. Musil, H. Neugebauer, J. Pisarek, C. Plett, P. Pracht, F. Pultar,
   J. Seibert, P. Shushkov, S. Spicher, M. Stahn, M. Steiner, T. Strunk,
   J. Stückrath, T. Rose, and J. Unsleber
   
 * started run on 2026/09/28 at 23:19:04.983     
   ID    Z sym.   atoms
    1    6 C      1, 2, 5-7, 10
    2    8 O      3, 8
    3    7 N      4, 9
    4    1 H      11-22

           -------------------------------------------------
          |                Calculation Setup                |
           -------------------------------------------------

          program call               : /app1/ebapps/arches/flat-avx2/software/ORCA/6.1.0-gompi-2023b-avx2/bin/otool_xtb o01-xtb-opt-freq_XTB.xyz --grad -c 0 -u 0 -P 8 --namespace o01-xtb-opt-freq --input o01-xtb-opt-freq_XTB.input.tmp --alpb WATER --acc 0.200000
          hostname                   : IN-006
          calculation namespace      : o01-xtb-opt-freq
          coordinate file            : o01-xtb-opt-freq_XTB.xyz
          omp threads                :                     8


           -------------------------------------------------
          |                 G F N 2 - x T B                 |
           -------------------------------------------------

        Reference                      10.1021/acs.jctc.8b01176
      * Hamiltonian:
        H0-scaling (s, p, d)           1.850000    2.230000    2.230000
        zeta-weighting                 0.500000
      * Dispersion:
        s8                             2.700000
        a1                             0.520000
        a2                             5.000000
        s9                             5.000000
      * Repulsion:
        kExp                           1.500000    1.000000
        rExp                           1.000000
      * Coulomb:
        alpha                          2.000000
        third order                    shell-resolved
        anisotropic                    true
        a3                             3.000000
        a5                             4.000000
        cn-shift                       1.200000
        cn-exp                         4.000000
        max-rad                        5.000000

      * Solvation model:               ALPB
        Solvent                        WATER
        Parameter file                 internal GFN2-xTB/ALPB
        Dielectric constant                8.0200E+01
        Reference state                gsolv [1 M gas/solution]
        Free energy shift                  1.0808E-03 Eh       6.7819E-01 kcal/mol
        Temperature                        2.9815E+02 K
        Density                            1.0000E+00 kg/L
        Solvent mass                       1.8000E+01 g/mol
        Interaction kernel             P16
        Born radius scaling (c1)           1.4744E+00
        Born radii integrator          GBOBC
        Born offset                        0.0000E+00 a0       0.0000E+00 AA
        H-bond correction              true
        Ion screening                  false
        Surface tension                    1.0000E-05 Eh       1.5569E+01 dyn/cm
        Grid points                               230 per atom
q/qsh data taken from xtbrestart
CAMM data taken from xtbrestart

          ...................................................
          :                      SETUP                      :
          :.................................................:
          :  # basis functions                  52          :
          :  # atomic orbitals                  52          :
          :  # shells                           32          :
          :  # electrons                        58          :
          :  max. iterations                   250          :
          :  Hamiltonian                  GFN2-xTB          :
          :  restarted?                       true          :
          :  GBSA solvation                   true          :
          :  PC potential                    false          :
          :  electronic temp.          300.0000000     K    :
          :  accuracy                    0.2000000          :
          :  -> integral cutoff          0.3198970E+02      :
          :  -> integral neglect         0.2000000E-08      :
          :  -> SCF convergence          0.2000000E-06 Eh   :
          :  -> wf. convergence          0.2000000E-04 e    :
          :  Broyden damping             0.4000000          :
          :  net charge                          0          :
          :  unpaired electrons                  0          :
          ...................................................

 iter      E             dE          RMSdq      gap      omega  full diag
   1    -33.3795967 -0.333796E+02  0.431E-02    4.59       0.0  T
   2    -33.3795969 -0.152436E-06  0.259E-02    4.59       1.0  T
   3    -33.3795969 -0.380699E-07  0.124E-03    4.59      17.2  T
   4    -33.3795969 -0.693004E-08  0.644E-04    4.59      33.1  T
   5    -33.3795969 -0.470934E-09  0.239E-04    4.59      89.2  T
   6    -33.3795969 -0.206654E-09  0.522E-05    4.59     408.7  T
   7    -33.3795969 -0.472511E-11  0.271E-05    4.59     785.7  T

   *** convergence criteria satisfied after 7 iterations ***

         #    Occupation            Energy/Eh            Energy/eV
      -------------------------------------------------------------
         1        2.0000           -0.7090512             -19.2943
       ...           ...                  ...                  ...
        23        2.0000           -0.4655705             -12.6688
        24        2.0000           -0.4622960             -12.5797
        25        2.0000           -0.4553235             -12.3900
        26        2.0000           -0.4330309             -11.7834
        27        2.0000           -0.4081878             -11.1074
        28        2.0000           -0.4028055             -10.9609
        29        2.0000           -0.3907236             -10.6321 (HOMO)
        30                         -0.2220624              -6.0426 (LUMO)
        31                         -0.2127131              -5.7882
        32                          0.0043850               0.1193
        33                          0.0069596               0.1894
        34                          0.0865748               2.3558
       ...                                ...                  ...
        52                          0.6077021              16.5364
      -------------------------------------------------------------
                  HL-Gap            0.1686612 Eh            4.5895 eV
             Fermi-level           -0.3063930 Eh           -8.3374 eV

 SCC (total)                   0 d,  0 h,  0 min,  0.010 sec
 SCC setup                      ...        0 min,  0.000 sec (  4.040%)
 Dispersion                     ...        0 min,  0.000 sec (  1.693%)
 classical contributions        ...        0 min,  0.000 sec (  0.214%)
 integral evaluation            ...        0 min,  0.001 sec (  7.292%)
 iterations                     ...        0 min,  0.007 sec ( 68.786%)
 molecular gradient             ...        0 min,  0.002 sec ( 16.709%)
 printout                       ...        0 min,  0.000 sec (  1.041%)

         :::::::::::::::::::::::::::::::::::::::::::::::::::::
         ::                     SUMMARY                     ::
         :::::::::::::::::::::::::::::::::::::::::::::::::::::
         :: total energy             -32.991342306175 Eh    ::
         :: total w/o Gsasa/hb       -32.988985947525 Eh    ::
         :: gradient norm              0.002242524557 Eh/a0 ::
         :: HOMO-LUMO gap              4.589504512808 eV    ::
         ::.................................................::
         :: SCC energy               -33.379492249829 Eh    ::
         :: -> isotropic ES            0.104233932071 Eh    ::
         :: -> anisotropic ES          0.001169625525 Eh    ::
         :: -> anisotropic XC          0.010762387990 Eh    ::
         :: -> dispersion             -0.015446258039 Eh    ::
         :: -> Gsolv                  -0.020305140882 Eh    ::
         ::    -> Gelec               -0.017948782232 Eh    ::
         ::    -> Gsasa                0.001579929011 Eh    ::
         ::    -> Ghb                 -0.005017047358 Eh    ::
         ::    -> Gshift               0.001080759698 Eh    ::
         :: repulsion energy           0.388149943654 Eh    ::
         :: add. restraining           0.000000000000 Eh    ::
         :: total charge               0.000000000000 e     ::
         :::::::::::::::::::::::::::::::::::::::::::::::::::::


Property printout bound to 'properties.out'

           -------------------------------------------------
          | TOTAL ENERGY              -32.991342306175 Eh   |
          | GRADIENT NORM               0.002242524557 Eh/α |
          | HOMO-LUMO GAP               4.589504512808 eV   |
           -------------------------------------------------

------------------------------------------------------------------------
 * finished run on 2026/09/28 at 23:19:05.045     
------------------------------------------------------------------------
 total:
 * wall-time:     0 d,  0 h,  0 min,  0.061 sec
 *  cpu-time:     0 d,  0 h,  0 min,  0.395 sec
 * ratio c/w:     6.499 speedup
 SCF:
 * wall-time:     0 d,  0 h,  0 min,  0.010 sec
 *  cpu-time:     0 d,  0 h,  0 min,  0.079 sec
 * ratio c/w:     7.898 speedup


-------------------------   --------------------
FINAL SINGLE POINT ENERGY       -32.991342306170
-------------------------   --------------------


-------------
DIPOLE MOMENT
-------------
                                X             Y             Z
Total Dipole Moment    :      1.11700       0.32100       0.77900
                        -----------------------------------------
Magnitude (a.u.)       :      1.39913
Magnitude (Debye)      :      3.55631


------------------
CARTESIAN GRADIENT
------------------

   1   C   :    0.000199188    0.000149572    0.000061572
   2   C   :   -0.000417054   -0.000201345   -0.000513588
   3   O   :    0.000090283    0.000030767    0.000342998
   4   N   :    0.000379964    0.000426494    0.000492485
   5   C   :    0.000200454   -0.000220965   -0.000687134
   6   C   :   -0.000035750    0.000026798    0.000021071
   7   C   :   -0.000455142   -0.000123635    0.000348220
   8   O   :    0.000114540    0.000381103   -0.000250516
   9   N   :    0.001106611   -0.000639183    0.000120326
  10   C   :   -0.000259150    0.000008762    0.000384336
  11   H   :    0.000014383   -0.000084196   -0.000033980
  12   H   :   -0.000086880    0.000038235    0.000124416
  13   H   :   -0.000034540   -0.000103443   -0.000059262
  14   H   :   -0.000140688   -0.000141489   -0.000139522
  15   H   :   -0.000114534   -0.000042801    0.000144396
  16   H   :   -0.000010422    0.000030222    0.000096690
  17   H   :    0.000049345    0.000034518   -0.000039380
  18   H   :   -0.000040059    0.000039012    0.000007340
  19   H   :   -0.000518119    0.000365115   -0.000200246
  20   H   :   -0.000014370   -0.000110359    0.000070242
  21   H   :   -0.000149729    0.000277954   -0.000158919
  22   H   :    0.000121670   -0.000141137   -0.000131546

Difference to translation invariance:
           :    0.0000000000   -0.0000000000   -0.0000000000

Difference to rotation invariance:
           :    0.0001831058    0.0000407210    0.0000921355

Norm of the Cartesian gradient     ...    0.0022425246
RMS gradient                       ...    0.0002760357
MAX gradient                       ...    0.0011066114
------------------------------------------------------------------------------
                         ORCA GEOMETRY RELAXATION STEP
------------------------------------------------------------------------------

Reading the OPT-File                    .... done
Getting information on internals        .... done
Copying old internal coords+grads       .... done
Making the new internal coordinates     .... (2022 redundants) done
Validating the new internal coordinates .... (2022 redundants) done
Calculating the B-matrix                .... done
Calculating the G,G- and P matrices     .... done
Transforming gradient to internals      .... done
Projecting the internal gradient        .... done
Number of atoms                         ....  22
Number of internal coordinates          ....  92
Current Energy                          ....   -32.991342306 Eh
Current gradient norm                   ....     0.002242525 Eh/bohr
Maximum allowed component of the step   ....  0.300
Current trust radius                    ....  0.700
Updating the Hessian (BFGS)             .... done
Forming the augmented Hessian           .... done
Diagonalizing the augmented Hessian     .... done
Last element of RFO vector              ....  0.983713093
Lowest eigenvalues of augmented Hessian:
 -0.000024747  0.000409563  0.001354850  0.004712483  0.011003128
Length of the computed step             ....  0.182721768
The final length of the internal step   ....  0.182721768
Converting the step to Cartesian space:
 Initial RMS(Int)=    0.0190500612
Transforming coordinates:
 Iter   0:  RMS(Cart)=    0.0316519891 RMS(Int)=    0.0190407987
 Iter   5:  RMS(Cart)=    0.0000000327 RMS(Int)=    0.0000000270
done
Storing new coordinates                 .... done
The predicted energy change is          ....    -0.000012786
Previously predicted energy change      ....    -0.000011767
Actually observed energy change         ....    -0.000017604
Ratio of predicted to observed change   ....     1.496054461
New trust radius                        ....     0.700000000

                                .--------------------.
          ----------------------|Geometry convergence|-------------------------
          Item                value                   Tolerance       Converged
          ---------------------------------------------------------------------
          Energy change      -0.0000176038            0.0000050000      NO
          RMS gradient        0.0001636913            0.0001000000      NO
          MAX gradient        0.0006809515            0.0003000000      NO
          RMS step            0.0190500612            0.0020000000      NO
          MAX step            0.0828165132            0.0040000000      NO
          -------------------------------------------------------------------------
          ........................................................
          Max(Bonds)      0.0012      Max(Angles)    0.28
          Max(Dihed)        4.75      Max(Improp)    0.00
          ---------------------------------------------------------------------

The optimization has not yet converged - more geometry cycles are needed


    ---------------------------------------------------------------------------
                         Redundant Internal Coordinates
                            (Angstroem and degrees)

        Definition                    Value    dE/dq     Step     New-Value
    ----------------------------------------------------------------------------
     1. B(C   1,C   0)                1.5061  0.000111  0.0003    1.5064   
     2. B(O   2,C   1)                1.2315 -0.000297 -0.0002    1.2313   
     3. B(N   3,C   1)                1.3403 -0.000227  0.0001    1.3404   
     4. B(C   4,N   3)                1.4552  0.000200 -0.0006    1.4546   
     5. B(C   5,C   4)                1.5197 -0.000106  0.0000    1.5198   
     6. B(C   6,C   4)                1.5436  0.000018 -0.0004    1.5432   
     7. B(O   7,C   6)                1.2263 -0.000411  0.0001    1.2264   
     8. B(N   8,C   6)                1.3336 -0.000304  0.0001    1.3336   
     9. B(C   9,N   8)                1.4462  0.000285 -0.0001    1.4461   
    10. B(H  10,C   0)                1.0872 -0.000054 -0.0004    1.0868   
    11. B(H  11,C   0)                1.0859 -0.000049  0.0004    1.0863   
    12. B(H  12,C   0)                1.0856 -0.000078 -0.0000    1.0856   
    13. B(H  13,N   3)                1.0088 -0.000103  0.0001    1.0089   
    14. B(H  14,C   4)                1.0961 -0.000181  0.0003    1.0964   
    15. B(H  15,C   5)                1.0857 -0.000079  0.0001    1.0858   
    16. B(H  16,C   5)                1.0873 -0.000058  0.0000    1.0873   
    17. B(H  17,C   5)                1.0857 -0.000048  0.0002    1.0859   
    18. B(H  18,O   2)                2.0110  0.000050  0.0012    2.0122   
    19. B(H  18,N   8)                1.0154 -0.000075  0.0000    1.0154   
    20. B(H  19,C   9)                1.0899 -0.000059 -0.0000    1.0899   
    21. B(H  20,C   9)                1.0883 -0.000155  0.0001    1.0884   
    22. B(H  21,C   9)                1.0891  0.000070 -0.0001    1.0891   
    23. A(H  11,C   0,H  12)          109.76  0.000035   -0.24    109.52   
    24. A(C   1,C   0,H  11)          110.51  0.000146   -0.27    110.24   
    25. A(C   1,C   0,H  12)          109.18 -0.000119    0.03    109.21   
    26. A(C   1,C   0,H  10)          109.42 -0.000078    0.26    109.67   
    27. A(H  10,C   0,H  12)          109.12  0.000097    0.28    109.40   
    28. A(H  10,C   0,H  11)          108.84 -0.000080   -0.05    108.79   
    29. A(O   2,C   1,N   3)          122.09  0.000181   -0.01    122.08   
    30. A(C   0,C   1,N   3)          114.88 -0.000077   -0.10    114.78   
    31. A(C   0,C   1,O   2)          123.04 -0.000104    0.11    123.14   
    32. A(C   4,N   3,H  13)          116.63 -0.000173    0.05    116.68   
    33. A(C   1,N   3,C   4)          123.36 -0.000069    0.04    123.40   
    34. A(C   1,N   3,H  13)          119.93  0.000239   -0.03    119.90   
    35. A(C   5,C   4,C   6)          111.15  0.000124   -0.01    111.14   
    36. A(N   3,C   4,C   5)          109.98 -0.000070    0.03    110.01   
    37. A(N   3,C   4,C   6)          109.50 -0.000211    0.08    109.58   
    38. A(C   6,C   4,H  14)          107.85 -0.000029   -0.02    107.83   
    39. A(C   5,C   4,H  14)          111.10  0.000047   -0.09    111.00   
    40. A(N   3,C   4,H  14)          107.15  0.000135    0.01    107.16   
    41. A(H  16,C   5,H  17)          109.96 -0.000007   -0.09    109.88   
    42. A(C   4,C   5,H  17)          110.44 -0.000034    0.05    110.50   
    43. A(H  15,C   5,H  16)          107.86 -0.000012   -0.02    107.84   
    44. A(C   4,C   5,H  16)          109.75 -0.000046    0.08    109.84   
    45. A(C   4,C   5,H  15)          109.57  0.000062    0.04    109.61   
    46. A(H  15,C   5,H  17)          109.20  0.000039   -0.07    109.13   
    47. A(O   7,C   6,N   8)          124.16 -0.000223   -0.00    124.16   
    48. A(C   4,C   6,N   8)          113.25 -0.000083   -0.01    113.23   
    49. A(C   4,C   6,O   7)          122.59  0.000306    0.02    122.61   
    50. A(C   9,N   8,H  18)          117.52 -0.000510    0.05    117.57   
    51. A(C   6,N   8,H  18)          118.81  0.000681   -0.09    118.72   
    52. A(C   6,N   8,C   9)          123.27 -0.000169    0.08    123.35   
    53. A(N   8,C   9,H  19)          110.43 -0.000031   -0.05    110.39   
    54. A(H  20,C   9,H  21)          109.63 -0.000091    0.04    109.67   
    55. A(H  19,C   9,H  21)          109.37  0.000150   -0.04    109.33   
    56. A(N   8,C   9,H  21)          109.73 -0.000380    0.09    109.82   
    57. A(H  19,C   9,H  20)          109.49 -0.000167    0.03    109.51   
    58. A(N   8,C   9,H  20)          108.18  0.000519   -0.07    108.11   
    59. D(O   2,C   1,C   0,H  10)    112.04 -0.000026    4.75    116.78   
    60. D(O   2,C   1,C   0,H  11)   -128.13 -0.000084    4.68   -123.46   
    61. D(N   3,C   1,C   0,H  11)     51.83 -0.000058    4.57     56.40   
    62. D(N   3,C   1,C   0,H  10)    -68.00 -0.000000    4.64    -63.36   
    63. D(O   2,C   1,C   0,H  12)     -7.32 -0.000026    4.23     -3.09   
    64. D(H  13,N   3,C   1,C   0)      5.00  0.000037   -0.33      4.68   
    65. D(C   4,N   3,C   1,C   0)   -178.31 -0.000040    0.46   -177.85   
    66. D(H  13,N   3,C   1,O   2)   -175.04  0.000062   -0.43   -175.46   
    67. D(C   4,N   3,C   1,O   2)      1.66 -0.000015    0.36      2.01   
    68. D(H  14,C   4,N   3,C   1)     34.54  0.000006   -0.27     34.27   
    69. D(C   6,C   4,N   3,H  13)     94.62  0.000014    0.45     95.07   
    70. D(C   6,C   4,N   3,C   1)    -82.18  0.000076   -0.30    -82.47   
    71. D(C   5,C   4,N   3,H  13)    -27.80  0.000042    0.39    -27.41   
    72. D(C   5,C   4,N   3,C   1)    155.41  0.000104   -0.36    155.05   
    73. D(H  15,C   5,C   4,N   3)   -175.09 -0.000156   -0.08   -175.17   
    74. D(H  16,C   5,C   4,H  14)   -174.89  0.000002   -0.15   -175.04   
    75. D(H  16,C   5,C   4,C   6)    -54.78  0.000079   -0.25    -55.03   
    76. D(H  16,C   5,C   4,N   3)     66.65 -0.000151   -0.13     66.52   
    77. D(H  15,C   5,C   4,H  14)    -56.63 -0.000004   -0.10    -56.73   
    78. D(H  15,C   5,C   4,C   6)     63.47  0.000074   -0.20     63.28   
    79. D(N   8,C   6,C   4,C   5)   -164.98 -0.000079   -0.14   -165.12   
    80. D(N   8,C   6,C   4,N   3)     73.31  0.000069   -0.23     73.07   
    81. D(O   7,C   6,C   4,H  14)    137.21  0.000019   -0.28    136.92   
    82. D(O   7,C   6,C   4,C   5)     15.19 -0.000097   -0.15     15.05   
    83. D(O   7,C   6,C   4,N   3)   -106.52  0.000051   -0.24   -106.76   
    84. D(H  18,N   8,C   6,O   7)    174.92 -0.000015    0.14    175.06   
    85. D(H  18,N   8,C   6,C   4)     -4.90 -0.000034    0.13     -4.77   
    86. D(C   9,N   8,C   6,O   7)      2.35 -0.000004    0.15      2.50   
    87. D(C   9,N   8,C   6,C   4)   -177.47 -0.000023    0.14   -177.33   
    88. D(H  19,C   9,N   8,H  18)    -58.92 -0.000017    0.71    -58.20   
    89. D(H  19,C   9,N   8,C   6)    113.74  0.000055    0.73    114.48   
    90. D(H  21,C   9,N   8,C   6)   -125.62 -0.000024    0.72   -124.90   
    91. D(H  20,C   9,N   8,H  18)   -178.72 -0.000115    0.75   -177.97   
    92. D(H  20,C   9,N   8,C   6)     -6.06 -0.000044    0.78     -5.29   
    ----------------------------------------------------------------------------

Geometry step timings:
Preparation and reading OPT file:      0.001 s ( 3.303 %)
Internal coordinates            :      0.000 s ( 0.197 %)
B/P matrices and projection     :      0.003 s ( 7.572 %)
Hessian update/contruction      :      0.017 s (50.305 %)
Making the step                 :      0.002 s ( 6.806 %)
Converting the step to Cartesian:      0.000 s ( 0.649 %)
Storing new data                :      0.005 s (14.920 %)
Checking convergence            :      0.000 s ( 0.254 %)
Final printing                  :      0.005 s (15.989 %)
Total time                      :      0.033 s

Time for energy+gradient        :      0.153 s
Time for complete geometry iter :      0.217 s

         *************************************************************
         *                GEOMETRY OPTIMIZATION CYCLE  18            *
         *************************************************************
---------------------------------
CARTESIAN COORDINATES (ANGSTROEM)
---------------------------------
  C     2.240272    1.749439    1.165175
  C     1.443722    1.036768    0.103660
  O     1.176318    1.539062   -0.988274
  N     1.044656   -0.199037    0.435619
  C     0.304767   -1.070128   -0.464199
  C     0.531205   -2.523988   -0.083775
  C    -1.194916   -0.709379   -0.416413
  O    -2.027384   -1.416694    0.141094
  N    -1.479977    0.437694   -1.034097
  C    -2.807128    1.010568   -1.073625
  H     1.622731    1.900077    2.046673
  H     3.108750    1.158994    1.443106
  H     2.563804    2.712498    0.782655
  H     1.222611   -0.552530    1.363614
  H     0.666347   -0.868676   -1.479449
  H     0.046406   -3.170232   -0.809249
  H     0.088420   -2.724151    0.888899
  H     1.593095   -2.749765   -0.059537
  H    -0.716225    0.995813   -1.403196
  H    -2.830354    1.953015   -0.526601
  H    -3.494191    0.304602   -0.610844
  H    -3.102927    1.186052   -2.106974

----------------------------
CARTESIAN COORDINATES (A.U.)
----------------------------
  NO LB    ZA    FRAG    MASS        X           Y           Z
   0 C   6.0000    0    12.011    4.233500    3.305961    2.201861
   1 C   6.0000    0    12.011    2.728240    1.959207    0.195890
   2 O   8.0000    0    15.999    2.222918    2.908405   -1.867567
   3 N   7.0000    0    14.007    1.974114   -0.376126    0.823202
   4 C   6.0000    0    12.011    0.575927   -2.022250   -0.877209
   5 C   6.0000    0    12.011    1.003832   -4.769646   -0.158312
   6 C   6.0000    0    12.011   -2.258063   -1.340531   -0.786907
   7 O   8.0000    0    15.999   -3.831201   -2.677164    0.266628
   8 N   7.0000    0    14.007   -2.796752    0.827122   -1.954160
   9 C   6.0000    0    12.011   -5.304703    1.909696   -2.028856
  10 H   1.0000    0     1.008    3.066518    3.590625    3.867652
  11 H   1.0000    0     1.008    5.874687    2.190181    2.727075
  12 H   1.0000    0     1.008    4.844888    5.125879    1.479003
  13 H   1.0000    0     1.008    2.310400   -1.044129    2.576857
  14 H   1.0000    0     1.008    1.259213   -1.641560   -2.795754
  15 H   1.0000    0     1.008    0.087695   -5.990871   -1.529260
  16 H   1.0000    0     1.008    0.167090   -5.147899    1.679775
  17 H   1.0000    0     1.008    3.010513   -5.196303   -0.112509
  18 H   1.0000    0     1.008   -1.353470    1.881813   -2.651655
  19 H   1.0000    0     1.008   -5.348593    3.690663   -0.995132
  20 H   1.0000    0     1.008   -6.603064    0.575615   -1.154327
  21 H   1.0000    0     1.008   -5.863683    2.241314   -3.981604

      -----------------------------------------------------------      
     |                   =====================                   |     
     |                           x T B                           |     
     |                   =====================                   |     
     |                         S. Grimme                         |     
     |          Mulliken Center for Theoretical Chemistry        |     
     |                    University of Bonn                     |     
      -----------------------------------------------------------      

   * xtb version 6.7.1 (edcfbbe) compiled by 'albert@albert-system' on 2024-07-22

   xtb is free software: you can redistribute it and/or modify it under
   the terms of the GNU Lesser General Public License as published by
   the Free Software Foundation, either version 3 of the License, or
   (at your option) any later version.
   
   xtb is distributed in the hope that it will be useful,
   but WITHOUT ANY WARRANTY; without even the implied warranty of
   MERCHANTABILITY or FITNESS FOR A PARTICULAR PURPOSE.  See the
   GNU Lesser General Public License for more details.
   
   Cite this work as:
   * C. Bannwarth, E. Caldeweyher, S. Ehlert, A. Hansen, P. Pracht,
     J. Seibert, S. Spicher, S. Grimme, WIREs Comput. Mol. Sci., 2020, 11,
     e01493. DOI: 10.1002/wcms.1493
   
   for GFN2-xTB:
   * C. Bannwarth, S. Ehlert and S. Grimme., J. Chem. Theory Comput., 2019,
     15, 1652-1671. DOI: 10.1021/acs.jctc.8b01176
   for GFN1-xTB:
   * S. Grimme, C. Bannwarth, P. Shushkov, J. Chem. Theory Comput., 2017,
     13, 1989-2009. DOI: 10.1021/acs.jctc.7b00118
   for GFN0-xTB:
   * P. Pracht, E. Caldeweyher, S. Ehlert, S. Grimme, ChemRxiv, 2019, preprint.
     DOI: 10.26434/chemrxiv.8326202.v1
   for GFN-FF:
   * S. Spicher and S. Grimme, Angew. Chem. Int. Ed., 2020, 59, 15665-15673.
     DOI: 10.1002/anie.202004239
   
   for ALPB and GBSA implicit solvation:
   * S. Ehlert, M. Stahn, S. Spicher, S. Grimme, J. Chem. Theory Comput.,
     2021, 17, 4250-4261. DOI: 10.1021/acs.jctc.1c00471
   
   for ddCOSMO and CPCM-X implicit solvation:
   * M. Stahn, S. Ehlert, S. Grimme, J. Phys. Chem. A,
     2023, XX, XXXX-XXXX. DOI: 10.1021/acs.jpca.3c04382
   
   for DFT-D4:
   * E. Caldeweyher, C. Bannwarth and S. Grimme, J. Chem. Phys., 2017,
     147, 034112. DOI: 10.1063/1.4993215
   * E. Caldeweyher, S. Ehlert, A. Hansen, H. Neugebauer, S. Spicher,
     C. Bannwarth and S. Grimme, J. Chem. Phys., 2019, 150, 154122.
     DOI: 10.1063/1.5090222
   * E. Caldeweyher, J.-M. Mewes, S. Ehlert and S. Grimme, Phys. Chem. Chem. Phys.
     2020, 22, 8499-8512. DOI: 10.1039/D0CP00502A
   
   for sTDA-xTB:
   * S. Grimme and C. Bannwarth, J. Chem. Phys., 2016, 145, 054103.
     DOI: 10.1063/1.4959605
   
   in the mass-spec context:
   * V. Asgeirsson, C. Bauer and S. Grimme, Chem. Sci., 2017, 8, 4879.
     DOI: 10.1039/c7sc00601b
   * J. Koopman and S. Grimme, ACS Omega 2019, 4, 12, 15120-15133.
     DOI: 10.1021/acsomega.9b02011
   
   for metadynamics refer to:
   * S. Grimme, J. Chem. Theory Comput., 2019, 155, 2847-2862
     DOI: 10.1021/acs.jctc.9b00143
   
   for SPH calculations refer to:
   * S. Spicher and S. Grimme, J. Chem. Theory Comput., 2021, 17, 1701-1714
     DOI: 10.1021/acs.jctc.0c01306
   
   for ONIOM refer to:
   * C. Plett, A. Katbashev, S. Ehlert, S. Grimme, M. Bursch,
     Phys. Chem. Chem. Phys., 2023, 25, 17860-17868. DOI: 10.1039/D3CP02178E
   
   for DIPRO refer to:
   * J. Kohn, N. Gildemeister, S. Grimme, D. Fazzi, A. Hansen,
     J. Chem. Phys., 2023, just accepted.
   
   for PTB refer to:
   * S. Grimme, M. Mueller, A. Hansen, J. Chem. Phys., 2023, 158, 124111.
     DOI: 10.1063/5.0137838
   
   with help from (in alphabetical order)
   P. Atkinson, C. Bannwarth, F. Bohle, G. Brandenburg, E. Caldeweyher
   M. Checinski, S. Dohm, S. Ehlert, S. Ehrlich, I. Gerasimov, C. Hölzer
   A. Katbashev, J. Kohn, J. Koopman, C. Lavigne, S. Lehtola, F. März, M. Müller,
   F. Musil, H. Neugebauer, J. Pisarek, C. Plett, P. Pracht, F. Pultar,
   J. Seibert, P. Shushkov, S. Spicher, M. Stahn, M. Steiner, T. Strunk,
   J. Stückrath, T. Rose, and J. Unsleber
   
 * started run on 2026/09/28 at 23:19:05.200     
   ID    Z sym.   atoms
    1    6 C      1, 2, 5-7, 10
    2    8 O      3, 8
    3    7 N      4, 9
    4    1 H      11-22

           -------------------------------------------------
          |                Calculation Setup                |
           -------------------------------------------------

          program call               : /app1/ebapps/arches/flat-avx2/software/ORCA/6.1.0-gompi-2023b-avx2/bin/otool_xtb o01-xtb-opt-freq_XTB.xyz --grad -c 0 -u 0 -P 8 --namespace o01-xtb-opt-freq --input o01-xtb-opt-freq_XTB.input.tmp --alpb WATER --acc 0.200000
          hostname                   : IN-006
          calculation namespace      : o01-xtb-opt-freq
          coordinate file            : o01-xtb-opt-freq_XTB.xyz
          omp threads                :                     8


           -------------------------------------------------
          |                 G F N 2 - x T B                 |
           -------------------------------------------------

        Reference                      10.1021/acs.jctc.8b01176
      * Hamiltonian:
        H0-scaling (s, p, d)           1.850000    2.230000    2.230000
        zeta-weighting                 0.500000
      * Dispersion:
        s8                             2.700000
        a1                             0.520000
        a2                             5.000000
        s9                             5.000000
      * Repulsion:
        kExp                           1.500000    1.000000
        rExp                           1.000000
      * Coulomb:
        alpha                          2.000000
        third order                    shell-resolved
        anisotropic                    true
        a3                             3.000000
        a5                             4.000000
        cn-shift                       1.200000
        cn-exp                         4.000000
        max-rad                        5.000000

      * Solvation model:               ALPB
        Solvent                        WATER
        Parameter file                 internal GFN2-xTB/ALPB
        Dielectric constant                8.0200E+01
        Reference state                gsolv [1 M gas/solution]
        Free energy shift                  1.0808E-03 Eh       6.7819E-01 kcal/mol
        Temperature                        2.9815E+02 K
        Density                            1.0000E+00 kg/L
        Solvent mass                       1.8000E+01 g/mol
        Interaction kernel             P16
        Born radius scaling (c1)           1.4744E+00
        Born radii integrator          GBOBC
        Born offset                        0.0000E+00 a0       0.0000E+00 AA
        H-bond correction              true
        Ion screening                  false
        Surface tension                    1.0000E-05 Eh       1.5569E+01 dyn/cm
        Grid points                               230 per atom
q/qsh data taken from xtbrestart
CAMM data taken from xtbrestart

          ...................................................
          :                      SETUP                      :
          :.................................................:
          :  # basis functions                  52          :
          :  # atomic orbitals                  52          :
          :  # shells                           32          :
          :  # electrons                        58          :
          :  max. iterations                   250          :
          :  Hamiltonian                  GFN2-xTB          :
          :  restarted?                       true          :
          :  GBSA solvation                   true          :
          :  PC potential                    false          :
          :  electronic temp.          300.0000000     K    :
          :  accuracy                    0.2000000          :
          :  -> integral cutoff          0.3198970E+02      :
          :  -> integral neglect         0.2000000E-08      :
          :  -> SCF convergence          0.2000000E-06 Eh   :
          :  -> wf. convergence          0.2000000E-04 e    :
          :  Broyden damping             0.4000000          :
          :  net charge                          0          :
          :  unpaired electrons                  0          :
          ...................................................

 iter      E             dE          RMSdq      gap      omega  full diag
   1    -33.3795816 -0.333796E+02  0.580E-02    4.59       0.0  T
   2    -33.3795818 -0.188484E-06  0.350E-02    4.59       1.0  T
   3    -33.3795819 -0.686162E-07  0.139E-03    4.59      15.4  T
   4    -33.3795819 -0.416859E-08  0.749E-04    4.59      28.5  T
   5    -33.3795819 -0.359080E-09  0.205E-04    4.59     103.8  T
   6    -33.3795819 -0.256733E-09  0.610E-05    4.59     349.6  T
   7    -33.3795819 -0.590461E-11  0.250E-05    4.59     853.1  T

   *** convergence criteria satisfied after 7 iterations ***

         #    Occupation            Energy/Eh            Energy/eV
      -------------------------------------------------------------
         1        2.0000           -0.7091346             -19.2965
       ...           ...                  ...                  ...
        23        2.0000           -0.4655837             -12.6692
        24        2.0000           -0.4623008             -12.5798
        25        2.0000           -0.4553153             -12.3898
        26        2.0000           -0.4329583             -11.7814
        27        2.0000           -0.4082654             -11.1095
        28        2.0000           -0.4027665             -10.9598
        29        2.0000           -0.3907221             -10.6321 (HOMO)
        30                         -0.2220363              -6.0419 (LUMO)
        31                         -0.2127841              -5.7902
        32                          0.0044668               0.1215
        33                          0.0071037               0.1933
        34                          0.0867623               2.3609
       ...                                ...                  ...
        52                          0.6075813              16.5331
      -------------------------------------------------------------
                  HL-Gap            0.1686858 Eh            4.5902 eV
             Fermi-level           -0.3063792 Eh           -8.3370 eV

 SCC (total)                   0 d,  0 h,  0 min,  0.010 sec
 SCC setup                      ...        0 min,  0.000 sec (  4.047%)
 Dispersion                     ...        0 min,  0.000 sec (  1.639%)
 classical contributions        ...        0 min,  0.000 sec (  0.205%)
 integral evaluation            ...        0 min,  0.001 sec (  7.306%)
 iterations                     ...        0 min,  0.007 sec ( 68.611%)
 molecular gradient             ...        0 min,  0.002 sec ( 16.802%)
 printout                       ...        0 min,  0.000 sec (  1.158%)

         :::::::::::::::::::::::::::::::::::::::::::::::::::::
         ::                     SUMMARY                     ::
         :::::::::::::::::::::::::::::::::::::::::::::::::::::
         :: total energy             -32.991355590726 Eh    ::
         :: total w/o Gsasa/hb       -32.989006262416 Eh    ::
         :: gradient norm              0.001889463315 Eh/a0 ::
         :: HOMO-LUMO gap              4.590175136755 eV    ::
         ::.................................................::
         :: SCC energy               -33.379477583477 Eh    ::
         :: -> isotropic ES            0.104235045789 Eh    ::
         :: -> anisotropic ES          0.001179885759 Eh    ::
         :: -> anisotropic XC          0.010757135308 Eh    ::
         :: -> dispersion             -0.015441987073 Eh    ::
         :: -> Gsolv                  -0.020322991762 Eh    ::
         ::    -> Gelec               -0.017973663453 Eh    ::
         ::    -> Gsasa                0.001579773919 Eh    ::
         ::    -> Ghb                 -0.005009861927 Eh    ::
         ::    -> Gshift               0.001080759698 Eh    ::
         :: repulsion energy           0.388121992752 Eh    ::
         :: add. restraining           0.000000000000 Eh    ::
         :: total charge               0.000000000000 e     ::
         :::::::::::::::::::::::::::::::::::::::::::::::::::::


Property printout bound to 'properties.out'

           -------------------------------------------------
          | TOTAL ENERGY              -32.991355590726 Eh   |
          | GRADIENT NORM               0.001889463315 Eh/α |
          | HOMO-LUMO GAP               4.590175136755 eV   |
           -------------------------------------------------

------------------------------------------------------------------------
 * finished run on 2026/09/28 at 23:19:05.262     
------------------------------------------------------------------------
 total:
 * wall-time:     0 d,  0 h,  0 min,  0.060 sec
 *  cpu-time:     0 d,  0 h,  0 min,  0.390 sec
 * ratio c/w:     6.500 speedup
 SCF:
 * wall-time:     0 d,  0 h,  0 min,  0.010 sec
 *  cpu-time:     0 d,  0 h,  0 min,  0.079 sec
 * ratio c/w:     7.897 speedup


-------------------------   --------------------
FINAL SINGLE POINT ENERGY       -32.991355590730
-------------------------   --------------------


-------------
DIPOLE MOMENT
-------------
                                X             Y             Z
Total Dipole Moment    :      1.13000       0.31900       0.78400
                        -----------------------------------------
Magnitude (a.u.)       :      1.41185
Magnitude (Debye)      :      3.58863


------------------
CARTESIAN GRADIENT
------------------

   1   C   :    0.000019424    0.000235000    0.000259841
   2   C   :   -0.000371147   -0.000107945   -0.000773216
   3   O   :    0.000077283   -0.000095091    0.000364217
   4   N   :    0.000217596    0.000371049    0.000281691
   5   C   :    0.000074811    0.000176378   -0.000336702
   6   C   :   -0.000197601    0.000312304   -0.000096121
   7   C   :   -0.000081131   -0.000158927    0.000213802
   8   O   :   -0.000016157    0.000276862   -0.000192874
   9   N   :    0.000786723   -0.000677903    0.000158788
  10   C   :   -0.000260664    0.000057292    0.000139253
  11   H   :    0.000077526   -0.000216454    0.000003639
  12   H   :   -0.000025061    0.000088160    0.000128413
  13   H   :    0.000061661   -0.000164384   -0.000093722
  14   H   :   -0.000078909   -0.000127951   -0.000081751
  15   H   :   -0.000052165   -0.000089038    0.000095537
  16   H   :    0.000049448   -0.000063838    0.000100825
  17   H   :    0.000148604   -0.000085442   -0.000012834
  18   H   :   -0.000021101   -0.000100743    0.000051943
  19   H   :   -0.000457577    0.000277145   -0.000131983
  20   H   :    0.000005471   -0.000067102    0.000048137
  21   H   :   -0.000052248    0.000215555   -0.000066964
  22   H   :    0.000095215   -0.000054924   -0.000059918

Difference to translation invariance:
           :    0.0000000000   -0.0000000000   -0.0000000000

Difference to rotation invariance:
           :    0.0002257898    0.0000923463    0.0000615147

Norm of the Cartesian gradient     ...    0.0018894633
RMS gradient                       ...    0.0002325769
MAX gradient                       ...    0.0007867227
------------------------------------------------------------------------------
                         ORCA GEOMETRY RELAXATION STEP
------------------------------------------------------------------------------

Reading the OPT-File                    .... done
Getting information on internals        .... done
Copying old internal coords+grads       .... done
Making the new internal coordinates     .... (2022 redundants) done
Validating the new internal coordinates .... (2022 redundants) done
Calculating the B-matrix                .... done
Calculating the G,G- and P matrices     .... done
Transforming gradient to internals      .... done
Projecting the internal gradient        .... done
Number of atoms                         ....  22
Number of internal coordinates          ....  92
Current Energy                          ....   -32.991355591 Eh
Current gradient norm                   ....     0.001889463 Eh/bohr
Maximum allowed component of the step   ....  0.300
Current trust radius                    ....  0.700
Updating the Hessian (BFGS)             .... done
Forming the augmented Hessian           .... done
Diagonalizing the augmented Hessian     .... done
Last element of RFO vector              ....  0.999746363
Lowest eigenvalues of augmented Hessian:
 -0.000007657  0.000553195  0.001302515  0.004683472  0.010632281
Length of the computed step             ....  0.022527031
The final length of the internal step   ....  0.022527031
Converting the step to Cartesian space:
 Initial RMS(Int)=    0.0023486053
Transforming coordinates:
 Iter   0:  RMS(Cart)=    0.0041989691 RMS(Int)=    0.0023478154
done
Storing new coordinates                 .... done
The predicted energy change is          ....    -0.000003830
Previously predicted energy change      ....    -0.000012786
Actually observed energy change         ....    -0.000013285
Ratio of predicted to observed change   ....     1.038962962
New trust radius                        ....     0.700000000

                                .--------------------.
          ----------------------|Geometry convergence|-------------------------
          Item                value                   Tolerance       Converged
          ---------------------------------------------------------------------
          Energy change      -0.0000132846            0.0000050000      NO
          RMS gradient        0.0001426221            0.0001000000      NO
          MAX gradient        0.0005008970            0.0003000000      NO
          RMS step            0.0023486053            0.0020000000      NO
          MAX step            0.0085696852            0.0040000000      NO
          -------------------------------------------------------------------------
          ........................................................
          Max(Bonds)      0.0009      Max(Angles)    0.15
          Max(Dihed)        0.49      Max(Improp)    0.00
          ---------------------------------------------------------------------

The optimization has not yet converged - more geometry cycles are needed


    ---------------------------------------------------------------------------
                         Redundant Internal Coordinates
                            (Angstroem and degrees)

        Definition                    Value    dE/dq     Step     New-Value
    ----------------------------------------------------------------------------
     1. B(C   1,C   0)                1.5064  0.000251 -0.0003    1.5061   
     2. B(O   2,C   1)                1.2313 -0.000360  0.0002    1.2315   
     3. B(N   3,C   1)                1.3404 -0.000286  0.0002    1.3406   
     4. B(C   4,N   3)                1.4546 -0.000017 -0.0003    1.4544   
     5. B(C   5,C   4)                1.5198 -0.000047  0.0001    1.5198   
     6. B(C   6,C   4)                1.5432 -0.000106 -0.0001    1.5431   
     7. B(O   7,C   6)                1.2264 -0.000236  0.0001    1.2266   
     8. B(N   8,C   6)                1.3336 -0.000279  0.0002    1.3338   
     9. B(C   9,N   8)                1.4461  0.000249 -0.0003    1.4457   
    10. B(H  10,C   0)                1.0868 -0.000072  0.0000    1.0868   
    11. B(H  11,C   0)                1.0863 -0.000036  0.0000    1.0864   
    12. B(H  12,C   0)                1.0856 -0.000093  0.0001    1.0857   
    13. B(H  13,N   3)                1.0089 -0.000044  0.0000    1.0089   
    14. B(H  14,C   4)                1.0964 -0.000124  0.0003    1.0966   
    15. B(H  15,C   5)                1.0858 -0.000054  0.0000    1.0859   
    16. B(H  16,C   5)                1.0873 -0.000052  0.0000    1.0873   
    17. B(H  17,C   5)                1.0859  0.000000  0.0000    1.0859   
    18. B(H  18,O   2)                2.0122  0.000063 -0.0009    2.0113   
    19. B(H  18,N   8)                1.0154 -0.000094  0.0001    1.0156   
    20. B(H  19,C   9)                1.0899 -0.000035  0.0000    1.0899   
    21. B(H  20,C   9)                1.0884 -0.000137  0.0002    1.0886   
    22. B(H  21,C   9)                1.0891  0.000025 -0.0000    1.0890   
    23. A(H  11,C   0,H  12)          109.52 -0.000066   -0.01    109.50   
    24. A(C   1,C   0,H  11)          110.24  0.000182   -0.02    110.22   
    25. A(C   1,C   0,H  12)          109.21 -0.000114    0.02    109.23   
    26. A(C   1,C   0,H  10)          109.67 -0.000052    0.01    109.69   
    27. A(H  10,C   0,H  12)          109.40  0.000196   -0.05    109.35   
    28. A(H  10,C   0,H  11)          108.79 -0.000144    0.05    108.84   
    29. A(O   2,C   1,N   3)          122.08  0.000162   -0.04    122.04   
    30. A(C   0,C   1,N   3)          114.78 -0.000310    0.05    114.82   
    31. A(C   0,C   1,O   2)          123.14  0.000148   -0.00    123.14   
    32. A(C   4,N   3,H  13)          116.67 -0.000163    0.06    116.73   
    33. A(C   1,N   3,C   4)          123.39  0.000015   -0.01    123.38   
    34. A(C   1,N   3,H  13)          119.89  0.000147   -0.04    119.85   
    35. A(C   5,C   4,C   6)          111.14  0.000069    0.01    111.15   
    36. A(N   3,C   4,C   5)          110.01 -0.000091    0.04    110.06   
    37. A(N   3,C   4,C   6)          109.58 -0.000065    0.06    109.64   
    38. A(C   6,C   4,H  14)          107.83 -0.000012   -0.02    107.81   
    39. A(C   5,C   4,H  14)          111.00 -0.000009   -0.04    110.97   
    40. A(N   3,C   4,H  14)          107.16  0.000110   -0.05    107.11   
    41. A(H  16,C   5,H  17)          109.88 -0.000169    0.01    109.89   
    42. A(C   4,C   5,H  17)          110.50  0.000098   -0.00    110.50   
    43. A(H  15,C   5,H  16)          107.84 -0.000100    0.01    107.84   
    44. A(C   4,C   5,H  16)          109.84  0.000119    0.00    109.84   
    45. A(C   4,C   5,H  15)          109.61  0.000147   -0.02    109.59   
    46. A(H  15,C   5,H  17)          109.13 -0.000100    0.00    109.13   
    47. A(O   7,C   6,N   8)          124.16 -0.000211    0.03    124.19   
    48. A(C   4,C   6,N   8)          113.23 -0.000137    0.01    113.24   
    49. A(C   4,C   6,O   7)          122.61  0.000348   -0.04    122.57   
    50. A(C   9,N   8,H  18)          117.56 -0.000501    0.14    117.70   
    51. A(C   6,N   8,H  18)          118.71  0.000454   -0.15    118.56   
    52. A(C   6,N   8,C   9)          123.34  0.000048    0.00    123.34   
    53. A(N   8,C   9,H  19)          110.39 -0.000058   -0.00    110.38   
    54. A(H  20,C   9,H  21)          109.66 -0.000014    0.01    109.67   
    55. A(H  19,C   9,H  21)          109.33  0.000082   -0.03    109.31   
    56. A(N   8,C   9,H  21)          109.82 -0.000222    0.08    109.90   
    57. A(H  19,C   9,H  20)          109.51 -0.000110    0.03    109.54   
    58. A(N   8,C   9,H  20)          108.11  0.000323   -0.08    108.02   
    59. D(O   2,C   1,C   0,H  10)    116.78  0.000051   -0.21    116.57   
    60. D(O   2,C   1,C   0,H  11)   -123.46 -0.000046   -0.16   -123.62   
    61. D(N   3,C   1,C   0,H  11)     56.40 -0.000014   -0.19     56.21   
    62. D(N   3,C   1,C   0,H  10)    -63.36  0.000083   -0.25    -63.61   
    63. D(O   2,C   1,C   0,H  12)     -3.09 -0.000087   -0.17     -3.27   
    64. D(H  13,N   3,C   1,C   0)      4.68  0.000011   -0.02      4.66   
    65. D(C   4,N   3,C   1,C   0)   -177.85 -0.000013    0.11   -177.74   
    66. D(H  13,N   3,C   1,O   2)   -175.46  0.000043   -0.05   -175.51   
    67. D(C   4,N   3,C   1,O   2)      2.01  0.000019    0.07      2.08   
    68. D(H  14,C   4,N   3,C   1)     34.27  0.000052   -0.12     34.14   
    69. D(C   6,C   4,N   3,H  13)     95.07  0.000023    0.01     95.08   
    70. D(C   6,C   4,N   3,C   1)    -82.48  0.000039   -0.10    -82.58   
    71. D(C   5,C   4,N   3,H  13)    -27.41  0.000039   -0.06    -27.47   
    72. D(C   5,C   4,N   3,C   1)    155.04  0.000055   -0.17    154.87   
    73. D(H  15,C   5,C   4,N   3)   -175.17 -0.000067    0.22   -174.95   
    74. D(H  16,C   5,C   4,H  14)   -175.04 -0.000031    0.17   -174.87   
    75. D(H  16,C   5,C   4,C   6)    -55.03 -0.000007    0.12    -54.91   
    76. D(H  16,C   5,C   4,N   3)     66.52 -0.000105    0.22     66.74   
    77. D(H  15,C   5,C   4,H  14)    -56.73  0.000006    0.17    -56.57   
    78. D(H  15,C   5,C   4,C   6)     63.28  0.000030    0.12     63.39   
    79. D(N   8,C   6,C   4,C   5)   -165.12 -0.000045   -0.07   -165.19   
    80. D(N   8,C   6,C   4,N   3)     73.07  0.000068   -0.17     72.90   
    81. D(O   7,C   6,C   4,H  14)    136.92 -0.000030   -0.12    136.80   
    82. D(O   7,C   6,C   4,C   5)     15.05 -0.000053   -0.06     14.98   
    83. D(O   7,C   6,C   4,N   3)   -106.76  0.000059   -0.16   -106.92   
    84. D(H  18,N   8,C   6,O   7)    175.07  0.000001    0.06    175.13   
    85. D(H  18,N   8,C   6,C   4)     -4.76 -0.000008    0.06     -4.69   
    86. D(C   9,N   8,C   6,O   7)      2.49  0.000028   -0.02      2.47   
    87. D(C   9,N   8,C   6,C   4)   -177.34  0.000018   -0.01   -177.35   
    88. D(H  19,C   9,N   8,H  18)    -58.19 -0.000007    0.39    -57.80   
    89. D(H  19,C   9,N   8,C   6)    114.47  0.000033    0.47    114.94   
    90. D(H  21,C   9,N   8,C   6)   -124.91 -0.000046    0.49   -124.42   
    91. D(H  20,C   9,N   8,H  18)   -177.96 -0.000037    0.41   -177.55   
    92. D(H  20,C   9,N   8,C   6)     -5.29  0.000003    0.49     -4.80   
    ----------------------------------------------------------------------------

Geometry step timings:
Preparation and reading OPT file:      0.001 s ( 2.608 %)
Internal coordinates            :      0.000 s ( 0.181 %)
B/P matrices and projection     :      0.002 s ( 7.123 %)
Hessian update/contruction      :      0.018 s (51.563 %)
Making the step                 :      0.002 s ( 6.338 %)
Converting the step to Cartesian:      0.000 s ( 0.477 %)
Storing new data                :      0.005 s (15.157 %)
Checking convergence            :      0.000 s ( 0.288 %)
Final printing                  :      0.006 s (16.262 %)
Total time                      :      0.035 s

Time for energy+gradient        :      0.152 s
Time for complete geometry iter :      0.217 s

         *************************************************************
         *                GEOMETRY OPTIMIZATION CYCLE  19            *
         *************************************************************
---------------------------------
CARTESIAN COORDINATES (ANGSTROEM)
---------------------------------
  C     2.241749    1.749462    1.164825
  C     1.444254    1.036741    0.104505
  O     1.177726    1.538089   -0.988265
  N     1.043301   -0.198503    0.437033
  C     0.304201   -1.069439   -0.463199
  C     0.531233   -2.523763   -0.084604
  C    -1.195800   -0.709937   -0.417511
  O    -2.028361   -1.419937    0.136722
  N    -1.480822    0.438719   -1.032616
  C    -2.808171    1.010263   -1.073452
  H     1.623447    1.905853    2.044841
  H     3.107671    1.156471    1.445426
  H     2.569652    2.710316    0.780153
  H     1.221244   -0.551347    1.365327
  H     0.666869   -0.866979   -1.478134
  H     0.049833   -3.169032   -0.813276
  H     0.085114   -2.726383    0.886083
  H     1.593343   -2.748186   -0.057132
  H    -0.715263    0.996450   -1.398888
  H    -2.831513    1.955195   -0.530729
  H    -3.493074    0.304959   -0.606048
  H    -3.106628    1.180987   -2.106799

----------------------------
CARTESIAN COORDINATES (A.U.)
----------------------------
  NO LB    ZA    FRAG    MASS        X           Y           Z
   0 C   6.0000    0    12.011    4.236292    3.306005    2.201200
   1 C   6.0000    0    12.011    2.729244    1.959157    0.197487
   2 O   8.0000    0    15.999    2.225580    2.906568   -1.867550
   3 N   7.0000    0    14.007    1.971553   -0.375116    0.825874
   4 C   6.0000    0    12.011    0.574856   -2.020947   -0.875319
   5 C   6.0000    0    12.011    1.003885   -4.769221   -0.159878
   6 C   6.0000    0    12.011   -2.259735   -1.341586   -0.788982
   7 O   8.0000    0    15.999   -3.833047   -2.683292    0.258367
   8 N   7.0000    0    14.007   -2.798349    0.829058   -1.951362
   9 C   6.0000    0    12.011   -5.306674    1.909120   -2.028530
  10 H   1.0000    0     1.008    3.067870    3.601541    3.864189
  11 H   1.0000    0     1.008    5.872647    2.185414    2.731459
  12 H   1.0000    0     1.008    4.855938    5.121754    1.474275
  13 H   1.0000    0     1.008    2.307817   -1.041894    2.580094
  14 H   1.0000    0     1.008    1.260199   -1.638352   -2.793269
  15 H   1.0000    0     1.008    0.094171   -5.988602   -1.536868
  16 H   1.0000    0     1.008    0.160843   -5.152118    1.674455
  17 H   1.0000    0     1.008    3.010982   -5.193319   -0.107964
  18 H   1.0000    0     1.008   -1.351652    1.883018   -2.643514
  19 H   1.0000    0     1.008   -5.350785    3.694784   -1.002933
  20 H   1.0000    0     1.008   -6.600953    0.576288   -1.145265
  21 H   1.0000    0     1.008   -5.870676    2.231742   -3.981273

      -----------------------------------------------------------      
     |                   =====================                   |     
     |                           x T B                           |     
     |                   =====================                   |     
     |                         S. Grimme                         |     
     |          Mulliken Center for Theoretical Chemistry        |     
     |                    University of Bonn                     |     
      -----------------------------------------------------------      

   * xtb version 6.7.1 (edcfbbe) compiled by 'albert@albert-system' on 2024-07-22

   xtb is free software: you can redistribute it and/or modify it under
   the terms of the GNU Lesser General Public License as published by
   the Free Software Foundation, either version 3 of the License, or
   (at your option) any later version.
   
   xtb is distributed in the hope that it will be useful,
   but WITHOUT ANY WARRANTY; without even the implied warranty of
   MERCHANTABILITY or FITNESS FOR A PARTICULAR PURPOSE.  See the
   GNU Lesser General Public License for more details.
   
   Cite this work as:
   * C. Bannwarth, E. Caldeweyher, S. Ehlert, A. Hansen, P. Pracht,
     J. Seibert, S. Spicher, S. Grimme, WIREs Comput. Mol. Sci., 2020, 11,
     e01493. DOI: 10.1002/wcms.1493
   
   for GFN2-xTB:
   * C. Bannwarth, S. Ehlert and S. Grimme., J. Chem. Theory Comput., 2019,
     15, 1652-1671. DOI: 10.1021/acs.jctc.8b01176
   for GFN1-xTB:
   * S. Grimme, C. Bannwarth, P. Shushkov, J. Chem. Theory Comput., 2017,
     13, 1989-2009. DOI: 10.1021/acs.jctc.7b00118
   for GFN0-xTB:
   * P. Pracht, E. Caldeweyher, S. Ehlert, S. Grimme, ChemRxiv, 2019, preprint.
     DOI: 10.26434/chemrxiv.8326202.v1
   for GFN-FF:
   * S. Spicher and S. Grimme, Angew. Chem. Int. Ed., 2020, 59, 15665-15673.
     DOI: 10.1002/anie.202004239
   
   for ALPB and GBSA implicit solvation:
   * S. Ehlert, M. Stahn, S. Spicher, S. Grimme, J. Chem. Theory Comput.,
     2021, 17, 4250-4261. DOI: 10.1021/acs.jctc.1c00471
   
   for ddCOSMO and CPCM-X implicit solvation:
   * M. Stahn, S. Ehlert, S. Grimme, J. Phys. Chem. A,
     2023, XX, XXXX-XXXX. DOI: 10.1021/acs.jpca.3c04382
   
   for DFT-D4:
   * E. Caldeweyher, C. Bannwarth and S. Grimme, J. Chem. Phys., 2017,
     147, 034112. DOI: 10.1063/1.4993215
   * E. Caldeweyher, S. Ehlert, A. Hansen, H. Neugebauer, S. Spicher,
     C. Bannwarth and S. Grimme, J. Chem. Phys., 2019, 150, 154122.
     DOI: 10.1063/1.5090222
   * E. Caldeweyher, J.-M. Mewes, S. Ehlert and S. Grimme, Phys. Chem. Chem. Phys.
     2020, 22, 8499-8512. DOI: 10.1039/D0CP00502A
   
   for sTDA-xTB:
   * S. Grimme and C. Bannwarth, J. Chem. Phys., 2016, 145, 054103.
     DOI: 10.1063/1.4959605
   
   in the mass-spec context:
   * V. Asgeirsson, C. Bauer and S. Grimme, Chem. Sci., 2017, 8, 4879.
     DOI: 10.1039/c7sc00601b
   * J. Koopman and S. Grimme, ACS Omega 2019, 4, 12, 15120-15133.
     DOI: 10.1021/acsomega.9b02011
   
   for metadynamics refer to:
   * S. Grimme, J. Chem. Theory Comput., 2019, 155, 2847-2862
     DOI: 10.1021/acs.jctc.9b00143
   
   for SPH calculations refer to:
   * S. Spicher and S. Grimme, J. Chem. Theory Comput., 2021, 17, 1701-1714
     DOI: 10.1021/acs.jctc.0c01306
   
   for ONIOM refer to:
   * C. Plett, A. Katbashev, S. Ehlert, S. Grimme, M. Bursch,
     Phys. Chem. Chem. Phys., 2023, 25, 17860-17868. DOI: 10.1039/D3CP02178E
   
   for DIPRO refer to:
   * J. Kohn, N. Gildemeister, S. Grimme, D. Fazzi, A. Hansen,
     J. Chem. Phys., 2023, just accepted.
   
   for PTB refer to:
   * S. Grimme, M. Mueller, A. Hansen, J. Chem. Phys., 2023, 158, 124111.
     DOI: 10.1063/5.0137838
   
   with help from (in alphabetical order)
   P. Atkinson, C. Bannwarth, F. Bohle, G. Brandenburg, E. Caldeweyher
   M. Checinski, S. Dohm, S. Ehlert, S. Ehrlich, I. Gerasimov, C. Hölzer
   A. Katbashev, J. Kohn, J. Koopman, C. Lavigne, S. Lehtola, F. März, M. Müller,
   F. Musil, H. Neugebauer, J. Pisarek, C. Plett, P. Pracht, F. Pultar,
   J. Seibert, P. Shushkov, S. Spicher, M. Stahn, M. Steiner, T. Strunk,
   J. Stückrath, T. Rose, and J. Unsleber
   
 * started run on 2026/09/28 at 23:19:05.416     
   ID    Z sym.   atoms
    1    6 C      1, 2, 5-7, 10
    2    8 O      3, 8
    3    7 N      4, 9
    4    1 H      11-22

           -------------------------------------------------
          |                Calculation Setup                |
           -------------------------------------------------

          program call               : /app1/ebapps/arches/flat-avx2/software/ORCA/6.1.0-gompi-2023b-avx2/bin/otool_xtb o01-xtb-opt-freq_XTB.xyz --grad -c 0 -u 0 -P 8 --namespace o01-xtb-opt-freq --input o01-xtb-opt-freq_XTB.input.tmp --alpb WATER --acc 0.200000
          hostname                   : IN-006
          calculation namespace      : o01-xtb-opt-freq
          coordinate file            : o01-xtb-opt-freq_XTB.xyz
          omp threads                :                     8


           -------------------------------------------------
          |                 G F N 2 - x T B                 |
           -------------------------------------------------

        Reference                      10.1021/acs.jctc.8b01176
      * Hamiltonian:
        H0-scaling (s, p, d)           1.850000    2.230000    2.230000
        zeta-weighting                 0.500000
      * Dispersion:
        s8                             2.700000
        a1                             0.520000
        a2                             5.000000
        s9                             5.000000
      * Repulsion:
        kExp                           1.500000    1.000000
        rExp                           1.000000
      * Coulomb:
        alpha                          2.000000
        third order                    shell-resolved
        anisotropic                    true
        a3                             3.000000
        a5                             4.000000
        cn-shift                       1.200000
        cn-exp                         4.000000
        max-rad                        5.000000

      * Solvation model:               ALPB
        Solvent                        WATER
        Parameter file                 internal GFN2-xTB/ALPB
        Dielectric constant                8.0200E+01
        Reference state                gsolv [1 M gas/solution]
        Free energy shift                  1.0808E-03 Eh       6.7819E-01 kcal/mol
        Temperature                        2.9815E+02 K
        Density                            1.0000E+00 kg/L
        Solvent mass                       1.8000E+01 g/mol
        Interaction kernel             P16
        Born radius scaling (c1)           1.4744E+00
        Born radii integrator          GBOBC
        Born offset                        0.0000E+00 a0       0.0000E+00 AA
        H-bond correction              true
        Ion screening                  false
        Surface tension                    1.0000E-05 Eh       1.5569E+01 dyn/cm
        Grid points                               230 per atom
q/qsh data taken from xtbrestart
CAMM data taken from xtbrestart

          ...................................................
          :                      SETUP                      :
          :.................................................:
          :  # basis functions                  52          :
          :  # atomic orbitals                  52          :
          :  # shells                           32          :
          :  # electrons                        58          :
          :  max. iterations                   250          :
          :  Hamiltonian                  GFN2-xTB          :
          :  restarted?                       true          :
          :  GBSA solvation                   true          :
          :  PC potential                    false          :
          :  electronic temp.          300.0000000     K    :
          :  accuracy                    0.2000000          :
          :  -> integral cutoff          0.3198970E+02      :
          :  -> integral neglect         0.2000000E-08      :
          :  -> SCF convergence          0.2000000E-06 Eh   :
          :  -> wf. convergence          0.2000000E-04 e    :
          :  Broyden damping             0.4000000          :
          :  net charge                          0          :
          :  unpaired electrons                  0          :
          ...................................................

 iter      E             dE          RMSdq      gap      omega  full diag
   1    -33.3794062 -0.333794E+02  0.117E-02    4.59       0.0  T
   2    -33.3794062 -0.310208E-07  0.693E-03    4.59       3.1  T
   3    -33.3794062  0.387584E-08  0.891E-04    4.59      23.9  T
   4    -33.3794062 -0.116075E-07  0.246E-04    4.59      86.8  T
   5    -33.3794062 -0.767670E-10  0.118E-04    4.59     180.8  T
   6    -33.3794062 -0.134293E-10  0.227E-05    4.59     939.0  T

   *** convergence criteria satisfied after 6 iterations ***

         #    Occupation            Energy/Eh            Energy/eV
      -------------------------------------------------------------
         1        2.0000           -0.7091400             -19.2967
       ...           ...                  ...                  ...
        23        2.0000           -0.4655699             -12.6688
        24        2.0000           -0.4622805             -12.5793
        25        2.0000           -0.4552408             -12.3877
        26        2.0000           -0.4329546             -11.7813
        27        2.0000           -0.4082934             -11.1102
        28        2.0000           -0.4027562             -10.9596
        29        2.0000           -0.3907388             -10.6325 (HOMO)
        30                         -0.2220964              -6.0435 (LUMO)
        31                         -0.2128926              -5.7931
        32                          0.0043867               0.1194
        33                          0.0071519               0.1946
        34                          0.0867606               2.3609
       ...                                ...                  ...
        52                          0.6072833              16.5250
      -------------------------------------------------------------
                  HL-Gap            0.1686424 Eh            4.5890 eV
             Fermi-level           -0.3064176 Eh           -8.3380 eV

 SCC (total)                   0 d,  0 h,  0 min,  0.010 sec
 SCC setup                      ...        0 min,  0.000 sec (  3.876%)
 Dispersion                     ...        0 min,  0.000 sec (  1.631%)
 classical contributions        ...        0 min,  0.000 sec (  0.204%)
 integral evaluation            ...        0 min,  0.001 sec (  7.467%)
 iterations                     ...        0 min,  0.007 sec ( 68.317%)
 molecular gradient             ...        0 min,  0.002 sec ( 17.042%)
 printout                       ...        0 min,  0.000 sec (  1.225%)

         :::::::::::::::::::::::::::::::::::::::::::::::::::::
         ::                     SUMMARY                     ::
         :::::::::::::::::::::::::::::::::::::::::::::::::::::
         :: total energy             -32.991361214357 Eh    ::
         :: total w/o Gsasa/hb       -32.989008321334 Eh    ::
         :: gradient norm              0.001087621837 Eh/a0 ::
         :: HOMO-LUMO gap              4.588993160865 eV    ::
         ::.................................................::
         :: SCC energy               -33.379302126047 Eh    ::
         :: -> isotropic ES            0.104263458959 Eh    ::
         :: -> anisotropic ES          0.001169110114 Eh    ::
         :: -> anisotropic XC          0.010755267282 Eh    ::
         :: -> dispersion             -0.015439823472 Eh    ::
         :: -> Gsolv                  -0.020337401513 Eh    ::
         ::    -> Gelec               -0.017984508491 Eh    ::
         ::    -> Gsasa                0.001578877642 Eh    ::
         ::    -> Ghb                 -0.005012530363 Eh    ::
         ::    -> Gshift               0.001080759698 Eh    ::
         :: repulsion energy           0.387940911690 Eh    ::
         :: add. restraining           0.000000000000 Eh    ::
         :: total charge              -0.000000000000 e     ::
         :::::::::::::::::::::::::::::::::::::::::::::::::::::


Property printout bound to 'properties.out'

           -------------------------------------------------
          | TOTAL ENERGY              -32.991361214357 Eh   |
          | GRADIENT NORM               0.001087621837 Eh/α |
          | HOMO-LUMO GAP               4.588993160865 eV   |
           -------------------------------------------------

------------------------------------------------------------------------
 * finished run on 2026/09/28 at 23:19:05.477     
------------------------------------------------------------------------
 total:
 * wall-time:     0 d,  0 h,  0 min,  0.060 sec
 *  cpu-time:     0 d,  0 h,  0 min,  0.389 sec
 * ratio c/w:     6.504 speedup
 SCF:
 * wall-time:     0 d,  0 h,  0 min,  0.010 sec
 *  cpu-time:     0 d,  0 h,  0 min,  0.079 sec
 * ratio c/w:     7.900 speedup


-------------------------   --------------------
FINAL SINGLE POINT ENERGY       -32.991361214360
-------------------------   --------------------


-------------
DIPOLE MOMENT
-------------
                                X             Y             Z
Total Dipole Moment    :      1.13000       0.32500       0.79200
                        -----------------------------------------
Magnitude (a.u.)       :      1.41767
Magnitude (Debye)      :      3.60343


------------------
CARTESIAN GRADIENT
------------------

   1   C   :   -0.000060807    0.000136464    0.000182198
   2   C   :   -0.000239148    0.000018269   -0.000444918
   3   O   :    0.000085206   -0.000084193    0.000227363
   4   N   :    0.000098765    0.000156814    0.000069099
   5   C   :   -0.000017853    0.000177020   -0.000038604
   6   C   :   -0.000155359    0.000269810   -0.000120976
   7   C   :    0.000069183   -0.000093097    0.000085336
   8   O   :   -0.000045568    0.000123769   -0.000094445
   9   N   :    0.000354429   -0.000437047    0.000097641
  10   C   :   -0.000140706    0.000081660   -0.000032830
  11   H   :    0.000045999   -0.000135456   -0.000001461
  12   H   :    0.000016414    0.000064660    0.000061134
  13   H   :    0.000091396   -0.000097360   -0.000060040
  14   H   :   -0.000030905   -0.000080098   -0.000046268
  15   H   :    0.000004074   -0.000065443    0.000024796
  16   H   :    0.000037978   -0.000066879    0.000057350
  17   H   :    0.000117298   -0.000086745    0.000009755
  18   H   :   -0.000004163   -0.000101878    0.000045522
  19   H   :   -0.000264981    0.000168338   -0.000052919
  20   H   :    0.000008727   -0.000031092    0.000028912
  21   H   :   -0.000013758    0.000091138    0.000001745
  22   H   :    0.000043780   -0.000008654    0.000001610

Difference to translation invariance:
           :    0.0000000000    0.0000000000   -0.0000000000

Difference to rotation invariance:
           :    0.0002320261    0.0000934992    0.0000522657

Norm of the Cartesian gradient     ...    0.0010876218
RMS gradient                       ...    0.0001338770
MAX gradient                       ...    0.0004449176
------------------------------------------------------------------------------
                         ORCA GEOMETRY RELAXATION STEP
------------------------------------------------------------------------------

Reading the OPT-File                    .... done
Getting information on internals        .... done
Copying old internal coords+grads       .... done
Making the new internal coordinates     .... (2022 redundants) done
Validating the new internal coordinates .... (2022 redundants) done
Calculating the B-matrix                .... done
Calculating the G,G- and P matrices     .... done
Transforming gradient to internals      .... done
Projecting the internal gradient        .... done
Number of atoms                         ....  22
Number of internal coordinates          ....  92
Current Energy                          ....   -32.991361214 Eh
Current gradient norm                   ....     0.001087622 Eh/bohr
Maximum allowed component of the step   ....  0.300
Current trust radius                    ....  0.700
Updating the Hessian (BFGS)             .... done
Forming the augmented Hessian           .... done
Diagonalizing the augmented Hessian     .... done
Last element of RFO vector              ....  0.999887500
Lowest eigenvalues of augmented Hessian:
 -0.000004951  0.000556356  0.001347745  0.004682146  0.009073973
Length of the computed step             ....  0.015001292
The final length of the internal step   ....  0.015001292
Converting the step to Cartesian space:
 Initial RMS(Int)=    0.0015639928
Transforming coordinates:
 Iter   0:  RMS(Cart)=    0.0027167985 RMS(Int)=    0.0015634477
done
Storing new coordinates                 .... done
The predicted energy change is          ....    -0.000002476
Previously predicted energy change      ....    -0.000003830
Actually observed energy change         ....    -0.000005624
Ratio of predicted to observed change   ....     1.468164418
New trust radius                        ....     0.700000000

                                .--------------------.
          ----------------------|Geometry convergence|-------------------------
          Item                value                   Tolerance       Converged
          ---------------------------------------------------------------------
          Energy change      -0.0000056236            0.0000050000      NO
          RMS gradient        0.0000819195            0.0001000000      YES
          MAX gradient        0.0003091825            0.0003000000      NO
          RMS step            0.0015639928            0.0020000000      YES
          MAX step            0.0054146182            0.0040000000      NO
          -------------------------------------------------------------------------
          ........................................................
          Max(Bonds)      0.0025      Max(Angles)    0.16
          Max(Dihed)        0.31      Max(Improp)    0.00
          ---------------------------------------------------------------------

The optimization has not yet converged - more geometry cycles are needed


    ---------------------------------------------------------------------------
                         Redundant Internal Coordinates
                            (Angstroem and degrees)

        Definition                    Value    dE/dq     Step     New-Value
    ----------------------------------------------------------------------------
     1. B(C   1,C   0)                1.5061  0.000160 -0.0004    1.5056   
     2. B(O   2,C   1)                1.2315 -0.000237  0.0003    1.2317   
     3. B(N   3,C   1)                1.3406 -0.000124  0.0002    1.3407   
     4. B(C   4,N   3)                1.4544 -0.000067 -0.0001    1.4543   
     5. B(C   5,C   4)                1.5198 -0.000012  0.0001    1.5199   
     6. B(C   6,C   4)                1.5432 -0.000093  0.0001    1.5432   
     7. B(O   7,C   6)                1.2266 -0.000083  0.0001    1.2267   
     8. B(N   8,C   6)                1.3338 -0.000134  0.0002    1.3340   
     9. B(C   9,N   8)                1.4457  0.000143 -0.0004    1.4454   
    10. B(H  10,C   0)                1.0868 -0.000048  0.0001    1.0869   
    11. B(H  11,C   0)                1.0864 -0.000007  0.0000    1.0864   
    12. B(H  12,C   0)                1.0857 -0.000036  0.0001    1.0858   
    13. B(H  13,N   3)                1.0089 -0.000019  0.0001    1.0090   
    14. B(H  14,C   4)                1.0966 -0.000036  0.0002    1.0968   
    15. B(H  15,C   5)                1.0859 -0.000018  0.0000    1.0859   
    16. B(H  16,C   5)                1.0873 -0.000019  0.0000    1.0874   
    17. B(H  17,C   5)                1.0859  0.000017 -0.0000    1.0859   
    18. B(H  18,O   2)                2.0113  0.000063 -0.0025    2.0089   
    19. B(H  18,N   8)                1.0155 -0.000038  0.0001    1.0157   
    20. B(H  19,C   9)                1.0899 -0.000014  0.0000    1.0900   
    21. B(H  20,C   9)                1.0886 -0.000052  0.0002    1.0887   
    22. B(H  21,C   9)                1.0890 -0.000012 -0.0000    1.0890   
    23. A(H  11,C   0,H  12)          109.50 -0.000093    0.03    109.53   
    24. A(C   1,C   0,H  11)          110.22  0.000100   -0.03    110.19   
    25. A(C   1,C   0,H  12)          109.23 -0.000043    0.02    109.24   
    26. A(C   1,C   0,H  10)          109.69 -0.000025    0.01    109.70   
    27. A(H  10,C   0,H  12)          109.35  0.000139   -0.08    109.27   
    28. A(H  10,C   0,H  11)          108.84 -0.000077    0.05    108.89   
    29. A(O   2,C   1,N   3)          122.04  0.000068   -0.04    122.00   
    30. A(C   0,C   1,N   3)          114.82 -0.000175    0.05    114.87   
    31. A(C   0,C   1,O   2)          123.14  0.000107   -0.01    123.13   
    32. A(C   4,N   3,H  13)          116.73 -0.000102    0.06    116.79   
    33. A(C   1,N   3,C   4)          123.38  0.000028   -0.02    123.36   
    34. A(C   1,N   3,H  13)          119.85  0.000073   -0.04    119.81   
    35. A(C   5,C   4,C   6)          111.15  0.000021    0.01    111.16   
    36. A(N   3,C   4,C   5)          110.05 -0.000036    0.04    110.09   
    37. A(N   3,C   4,C   6)          109.64 -0.000003    0.03    109.67   
    38. A(C   6,C   4,H  14)          107.81  0.000003   -0.02    107.79   
    39. A(C   5,C   4,H  14)          110.97 -0.000032   -0.01    110.96   
    40. A(N   3,C   4,H  14)          107.11  0.000047   -0.05    107.06   
    41. A(H  16,C   5,H  17)          109.89 -0.000151    0.05    109.94   
    42. A(C   4,C   5,H  17)          110.50  0.000100   -0.02    110.48   
    43. A(H  15,C   5,H  16)          107.84 -0.000084    0.02    107.86   
    44. A(C   4,C   5,H  16)          109.84  0.000116   -0.03    109.81   
    45. A(C   4,C   5,H  15)          109.59  0.000109   -0.04    109.55   
    46. A(H  15,C   5,H  17)          109.13 -0.000096    0.03    109.16   
    47. A(O   7,C   6,N   8)          124.18 -0.000125    0.04    124.22   
    48. A(C   4,C   6,N   8)          113.25 -0.000070    0.01    113.26   
    49. A(C   4,C   6,O   7)          122.57  0.000195   -0.05    122.52   
    50. A(C   9,N   8,H  18)          117.70 -0.000309    0.16    117.85   
    51. A(C   6,N   8,H  18)          118.57  0.000218   -0.14    118.43   
    52. A(C   6,N   8,C   9)          123.34  0.000090   -0.01    123.33   
    53. A(N   8,C   9,H  19)          110.39 -0.000044    0.02    110.40   
    54. A(H  20,C   9,H  21)          109.67  0.000011   -0.00    109.67   
    55. A(H  19,C   9,H  21)          109.31  0.000031   -0.02    109.29   
    56. A(N   8,C   9,H  21)          109.90 -0.000069    0.06    109.96   
    57. A(H  19,C   9,H  20)          109.54 -0.000049    0.03    109.56   
    58. A(N   8,C   9,H  20)          108.02  0.000121   -0.08    107.94   
    59. D(O   2,C   1,C   0,H  10)    116.57  0.000045   -0.01    116.56   
    60. D(O   2,C   1,C   0,H  11)   -123.62 -0.000003    0.04   -123.57   
    61. D(N   3,C   1,C   0,H  11)     56.21 -0.000019    0.06     56.27   
    62. D(N   3,C   1,C   0,H  10)    -63.61  0.000029    0.01    -63.60   
    63. D(O   2,C   1,C   0,H  12)     -3.27 -0.000083    0.07     -3.20   
    64. D(H  13,N   3,C   1,C   0)      4.66  0.000013    0.02      4.69   
    65. D(C   4,N   3,C   1,C   0)   -177.74  0.000014    0.04   -177.71   
    66. D(H  13,N   3,C   1,O   2)   -175.51 -0.000003    0.04   -175.47   
    67. D(C   4,N   3,C   1,O   2)      2.08 -0.000002    0.06      2.14   
    68. D(H  14,C   4,N   3,C   1)     34.14  0.000045   -0.08     34.06   
    69. D(C   6,C   4,N   3,H  13)     95.08  0.000020   -0.04     95.04   
    70. D(C   6,C   4,N   3,C   1)    -82.58  0.000016   -0.04    -82.62   
    71. D(C   5,C   4,N   3,H  13)    -27.47  0.000019   -0.10    -27.57   
    72. D(C   5,C   4,N   3,C   1)    154.87  0.000015   -0.10    154.77   
    73. D(H  15,C   5,C   4,N   3)   -174.95 -0.000014    0.29   -174.66   
    74. D(H  16,C   5,C   4,H  14)   -174.87 -0.000031    0.26   -174.61   
    75. D(H  16,C   5,C   4,C   6)    -54.91 -0.000033    0.24    -54.67   
    76. D(H  16,C   5,C   4,N   3)     66.75 -0.000047    0.31     67.06   
    77. D(H  15,C   5,C   4,H  14)    -56.57  0.000002    0.24    -56.33   
    78. D(H  15,C   5,C   4,C   6)     63.39 -0.000001    0.22     63.61   
    79. D(N   8,C   6,C   4,C   5)   -165.19 -0.000015    0.01   -165.18   
    80. D(N   8,C   6,C   4,N   3)     72.91  0.000018   -0.07     72.84   
    81. D(O   7,C   6,C   4,H  14)    136.80 -0.000039    0.02    136.82   
    82. D(O   7,C   6,C   4,C   5)     14.98 -0.000015    0.04     15.02   
    83. D(O   7,C   6,C   4,N   3)   -106.92  0.000017   -0.04   -106.96   
    84. D(H  18,N   8,C   6,O   7)    175.14 -0.000011    0.01    175.15   
    85. D(H  18,N   8,C   6,C   4)     -4.69 -0.000012    0.04     -4.64   
    86. D(C   9,N   8,C   6,O   7)      2.47  0.000022   -0.05      2.42   
    87. D(C   9,N   8,C   6,C   4)   -177.35  0.000021   -0.02   -177.38   
    88. D(H  19,C   9,N   8,H  18)    -57.80 -0.000001    0.09    -57.71   
    89. D(H  19,C   9,N   8,C   6)    114.93  0.000002    0.15    115.08   
    90. D(H  21,C   9,N   8,C   6)   -124.42 -0.000032    0.17   -124.25   
    91. D(H  20,C   9,N   8,H  18)   -177.54  0.000010    0.10   -177.44   
    92. D(H  20,C   9,N   8,C   6)     -4.81  0.000013    0.16     -4.65   
    ----------------------------------------------------------------------------

Geometry step timings:
Preparation and reading OPT file:      0.001 s ( 3.797 %)
Internal coordinates            :      0.000 s ( 0.199 %)
B/P matrices and projection     :      0.002 s ( 7.448 %)
Hessian update/contruction      :      0.016 s (49.642 %)
Making the step                 :      0.002 s ( 6.889 %)
Converting the step to Cartesian:      0.000 s ( 0.498 %)
Storing new data                :      0.005 s (14.676 %)
Checking convergence            :      0.000 s ( 0.375 %)
Final printing                  :      0.005 s (16.473 %)
Total time                      :      0.033 s

Time for energy+gradient        :      0.153 s
Time for complete geometry iter :      0.215 s

         *************************************************************
         *                GEOMETRY OPTIMIZATION CYCLE  20            *
         *************************************************************
---------------------------------
CARTESIAN COORDINATES (ANGSTROEM)
---------------------------------
  C     2.242469    1.749765    1.163935
  C     1.444675    1.036148    0.105041
  O     1.177839    1.536575   -0.988370
  N     1.042729   -0.198742    0.438264
  C     0.303797   -1.069407   -0.462153
  C     0.530834   -2.524233   -0.085184
  C    -1.196301   -0.709942   -0.417483
  O    -2.028668   -1.421028    0.135929
  N    -1.480902    0.439511   -1.031634
  C    -2.808110    1.010382   -1.073357
  H     1.624617    1.907560    2.044134
  H     3.108684    1.156924    1.443986
  H     2.569544    2.710786    0.778677
  H     1.220307   -0.550453    1.367117
  H     0.667099   -0.865798   -1.476843
  H     0.053245   -3.168100   -0.817647
  H     0.080008   -2.728766    0.882958
  H     1.593109   -2.747096   -0.053519
  H    -0.713351    0.995758   -1.396447
  H    -2.832232    1.955968   -0.531738
  H    -3.491728    0.304329   -0.604817
  H    -3.107659    1.179859   -2.106586

----------------------------
CARTESIAN COORDINATES (A.U.)
----------------------------
  NO LB    ZA    FRAG    MASS        X           Y           Z
   0 C   6.0000    0    12.011    4.237652    3.306577    2.199519
   1 C   6.0000    0    12.011    2.730041    1.958036    0.198498
   2 O   8.0000    0    15.999    2.225794    2.903706   -1.867748
   3 N   7.0000    0    14.007    1.970472   -0.375568    0.828199
   4 C   6.0000    0    12.011    0.574093   -2.020886   -0.873342
   5 C   6.0000    0    12.011    1.003130   -4.770109   -0.160974
   6 C   6.0000    0    12.011   -2.260681   -1.341596   -0.788929
   7 O   8.0000    0    15.999   -3.833628   -2.685353    0.256869
   8 N   7.0000    0    14.007   -2.798499    0.830556   -1.949506
   9 C   6.0000    0    12.011   -5.306559    1.909345   -2.028351
  10 H   1.0000    0     1.008    3.070081    3.604766    3.862853
  11 H   1.0000    0     1.008    5.874562    2.186269    2.728738
  12 H   1.0000    0     1.008    4.855734    5.122643    1.471486
  13 H   1.0000    0     1.008    2.306046   -1.040206    2.583477
  14 H   1.0000    0     1.008    1.260634   -1.636120   -2.790828
  15 H   1.0000    0     1.008    0.100618   -5.986842   -1.545129
  16 H   1.0000    0     1.008    0.151194   -5.156621    1.668549
  17 H   1.0000    0     1.008    3.010540   -5.191259   -0.101137
  18 H   1.0000    0     1.008   -1.348039    1.881710   -2.638903
  19 H   1.0000    0     1.008   -5.352143    3.696244   -1.004839
  20 H   1.0000    0     1.008   -6.598410    0.575098   -1.142938
  21 H   1.0000    0     1.008   -5.872625    2.229611   -3.980872

      -----------------------------------------------------------      
     |                   =====================                   |     
     |                           x T B                           |     
     |                   =====================                   |     
     |                         S. Grimme                         |     
     |          Mulliken Center for Theoretical Chemistry        |     
     |                    University of Bonn                     |     
      -----------------------------------------------------------      

   * xtb version 6.7.1 (edcfbbe) compiled by 'albert@albert-system' on 2024-07-22

   xtb is free software: you can redistribute it and/or modify it under
   the terms of the GNU Lesser General Public License as published by
   the Free Software Foundation, either version 3 of the License, or
   (at your option) any later version.
   
   xtb is distributed in the hope that it will be useful,
   but WITHOUT ANY WARRANTY; without even the implied warranty of
   MERCHANTABILITY or FITNESS FOR A PARTICULAR PURPOSE.  See the
   GNU Lesser General Public License for more details.
   
   Cite this work as:
   * C. Bannwarth, E. Caldeweyher, S. Ehlert, A. Hansen, P. Pracht,
     J. Seibert, S. Spicher, S. Grimme, WIREs Comput. Mol. Sci., 2020, 11,
     e01493. DOI: 10.1002/wcms.1493
   
   for GFN2-xTB:
   * C. Bannwarth, S. Ehlert and S. Grimme., J. Chem. Theory Comput., 2019,
     15, 1652-1671. DOI: 10.1021/acs.jctc.8b01176
   for GFN1-xTB:
   * S. Grimme, C. Bannwarth, P. Shushkov, J. Chem. Theory Comput., 2017,
     13, 1989-2009. DOI: 10.1021/acs.jctc.7b00118
   for GFN0-xTB:
   * P. Pracht, E. Caldeweyher, S. Ehlert, S. Grimme, ChemRxiv, 2019, preprint.
     DOI: 10.26434/chemrxiv.8326202.v1
   for GFN-FF:
   * S. Spicher and S. Grimme, Angew. Chem. Int. Ed., 2020, 59, 15665-15673.
     DOI: 10.1002/anie.202004239
   
   for ALPB and GBSA implicit solvation:
   * S. Ehlert, M. Stahn, S. Spicher, S. Grimme, J. Chem. Theory Comput.,
     2021, 17, 4250-4261. DOI: 10.1021/acs.jctc.1c00471
   
   for ddCOSMO and CPCM-X implicit solvation:
   * M. Stahn, S. Ehlert, S. Grimme, J. Phys. Chem. A,
     2023, XX, XXXX-XXXX. DOI: 10.1021/acs.jpca.3c04382
   
   for DFT-D4:
   * E. Caldeweyher, C. Bannwarth and S. Grimme, J. Chem. Phys., 2017,
     147, 034112. DOI: 10.1063/1.4993215
   * E. Caldeweyher, S. Ehlert, A. Hansen, H. Neugebauer, S. Spicher,
     C. Bannwarth and S. Grimme, J. Chem. Phys., 2019, 150, 154122.
     DOI: 10.1063/1.5090222
   * E. Caldeweyher, J.-M. Mewes, S. Ehlert and S. Grimme, Phys. Chem. Chem. Phys.
     2020, 22, 8499-8512. DOI: 10.1039/D0CP00502A
   
   for sTDA-xTB:
   * S. Grimme and C. Bannwarth, J. Chem. Phys., 2016, 145, 054103.
     DOI: 10.1063/1.4959605
   
   in the mass-spec context:
   * V. Asgeirsson, C. Bauer and S. Grimme, Chem. Sci., 2017, 8, 4879.
     DOI: 10.1039/c7sc00601b
   * J. Koopman and S. Grimme, ACS Omega 2019, 4, 12, 15120-15133.
     DOI: 10.1021/acsomega.9b02011
   
   for metadynamics refer to:
   * S. Grimme, J. Chem. Theory Comput., 2019, 155, 2847-2862
     DOI: 10.1021/acs.jctc.9b00143
   
   for SPH calculations refer to:
   * S. Spicher and S. Grimme, J. Chem. Theory Comput., 2021, 17, 1701-1714
     DOI: 10.1021/acs.jctc.0c01306
   
   for ONIOM refer to:
   * C. Plett, A. Katbashev, S. Ehlert, S. Grimme, M. Bursch,
     Phys. Chem. Chem. Phys., 2023, 25, 17860-17868. DOI: 10.1039/D3CP02178E
   
   for DIPRO refer to:
   * J. Kohn, N. Gildemeister, S. Grimme, D. Fazzi, A. Hansen,
     J. Chem. Phys., 2023, just accepted.
   
   for PTB refer to:
   * S. Grimme, M. Mueller, A. Hansen, J. Chem. Phys., 2023, 158, 124111.
     DOI: 10.1063/5.0137838
   
   with help from (in alphabetical order)
   P. Atkinson, C. Bannwarth, F. Bohle, G. Brandenburg, E. Caldeweyher
   M. Checinski, S. Dohm, S. Ehlert, S. Ehrlich, I. Gerasimov, C. Hölzer
   A. Katbashev, J. Kohn, J. Koopman, C. Lavigne, S. Lehtola, F. März, M. Müller,
   F. Musil, H. Neugebauer, J. Pisarek, C. Plett, P. Pracht, F. Pultar,
   J. Seibert, P. Shushkov, S. Spicher, M. Stahn, M. Steiner, T. Strunk,
   J. Stückrath, T. Rose, and J. Unsleber
   
 * started run on 2026/09/28 at 23:19:05.632     
   ID    Z sym.   atoms
    1    6 C      1, 2, 5-7, 10
    2    8 O      3, 8
    3    7 N      4, 9
    4    1 H      11-22

           -------------------------------------------------
          |                Calculation Setup                |
           -------------------------------------------------

          program call               : /app1/ebapps/arches/flat-avx2/software/ORCA/6.1.0-gompi-2023b-avx2/bin/otool_xtb o01-xtb-opt-freq_XTB.xyz --grad -c 0 -u 0 -P 8 --namespace o01-xtb-opt-freq --input o01-xtb-opt-freq_XTB.input.tmp --alpb WATER --acc 0.200000
          hostname                   : IN-006
          calculation namespace      : o01-xtb-opt-freq
          coordinate file            : o01-xtb-opt-freq_XTB.xyz
          omp threads                :                     8


           -------------------------------------------------
          |                 G F N 2 - x T B                 |
           -------------------------------------------------

        Reference                      10.1021/acs.jctc.8b01176
      * Hamiltonian:
        H0-scaling (s, p, d)           1.850000    2.230000    2.230000
        zeta-weighting                 0.500000
      * Dispersion:
        s8                             2.700000
        a1                             0.520000
        a2                             5.000000
        s9                             5.000000
      * Repulsion:
        kExp                           1.500000    1.000000
        rExp                           1.000000
      * Coulomb:
        alpha                          2.000000
        third order                    shell-resolved
        anisotropic                    true
        a3                             3.000000
        a5                             4.000000
        cn-shift                       1.200000
        cn-exp                         4.000000
        max-rad                        5.000000

      * Solvation model:               ALPB
        Solvent                        WATER
        Parameter file                 internal GFN2-xTB/ALPB
        Dielectric constant                8.0200E+01
        Reference state                gsolv [1 M gas/solution]
        Free energy shift                  1.0808E-03 Eh       6.7819E-01 kcal/mol
        Temperature                        2.9815E+02 K
        Density                            1.0000E+00 kg/L
        Solvent mass                       1.8000E+01 g/mol
        Interaction kernel             P16
        Born radius scaling (c1)           1.4744E+00
        Born radii integrator          GBOBC
        Born offset                        0.0000E+00 a0       0.0000E+00 AA
        H-bond correction              true
        Ion screening                  false
        Surface tension                    1.0000E-05 Eh       1.5569E+01 dyn/cm
        Grid points                               230 per atom
q/qsh data taken from xtbrestart
CAMM data taken from xtbrestart

          ...................................................
          :                      SETUP                      :
          :.................................................:
          :  # basis functions                  52          :
          :  # atomic orbitals                  52          :
          :  # shells                           32          :
          :  # electrons                        58          :
          :  max. iterations                   250          :
          :  Hamiltonian                  GFN2-xTB          :
          :  restarted?                       true          :
          :  GBSA solvation                   true          :
          :  PC potential                    false          :
          :  electronic temp.          300.0000000     K    :
          :  accuracy                    0.2000000          :
          :  -> integral cutoff          0.3198970E+02      :
          :  -> integral neglect         0.2000000E-08      :
          :  -> SCF convergence          0.2000000E-06 Eh   :
          :  -> wf. convergence          0.2000000E-04 e    :
          :  Broyden damping             0.4000000          :
          :  net charge                          0          :
          :  unpaired electrons                  0          :
          ...................................................

 iter      E             dE          RMSdq      gap      omega  full diag
   1    -33.3792163 -0.333792E+02  0.770E-03    4.59       0.0  T
   2    -33.3792163 -0.354342E-07  0.452E-03    4.59       4.7  T
   3    -33.3792163  0.299827E-08  0.918E-04    4.59      23.2  T
   4    -33.3792164 -0.814408E-08  0.196E-04    4.59     108.6  T
   5    -33.3792164 -0.138520E-09  0.105E-04    4.59     204.0  T

   *** convergence criteria satisfied after 5 iterations ***

         #    Occupation            Energy/Eh            Energy/eV
      -------------------------------------------------------------
         1        2.0000           -0.7091280             -19.2964
       ...           ...                  ...                  ...
        23        2.0000           -0.4655656             -12.6687
        24        2.0000           -0.4622514             -12.5785
        25        2.0000           -0.4551580             -12.3855
        26        2.0000           -0.4329605             -11.7815
        27        2.0000           -0.4083132             -11.1108
        28        2.0000           -0.4027397             -10.9591
        29        2.0000           -0.3907439             -10.6327 (HOMO)
        30                         -0.2221889              -6.0461 (LUMO)
        31                         -0.2129851              -5.7956
        32                          0.0043209               0.1176
        33                          0.0072193               0.1964
        34                          0.0867126               2.3596
       ...                                ...                  ...
        52                          0.6070338              16.5182
      -------------------------------------------------------------
                  HL-Gap            0.1685550 Eh            4.5866 eV
             Fermi-level           -0.3064664 Eh           -8.3394 eV

 SCC (total)                   0 d,  0 h,  0 min,  0.009 sec
 SCC setup                      ...        0 min,  0.000 sec (  4.224%)
 Dispersion                     ...        0 min,  0.000 sec (  1.722%)
 classical contributions        ...        0 min,  0.000 sec (  0.357%)
 integral evaluation            ...        0 min,  0.001 sec (  8.035%)
 iterations                     ...        0 min,  0.006 sec ( 65.962%)
 molecular gradient             ...        0 min,  0.002 sec ( 18.242%)
 printout                       ...        0 min,  0.000 sec (  1.141%)

         :::::::::::::::::::::::::::::::::::::::::::::::::::::
         ::                     SUMMARY                     ::
         :::::::::::::::::::::::::::::::::::::::::::::::::::::
         :: total energy             -32.991364009233 Eh    ::
         :: total w/o Gsasa/hb       -32.989005958290 Eh    ::
         :: gradient norm              0.000440568801 Eh/a0 ::
         :: HOMO-LUMO gap              4.586614936854 eV    ::
         ::.................................................::
         :: SCC energy               -33.379112318939 Eh    ::
         :: -> isotropic ES            0.104289544036 Eh    ::
         :: -> anisotropic ES          0.001147124854 Eh    ::
         :: -> anisotropic XC          0.010756943381 Eh    ::
         :: -> dispersion             -0.015440053967 Eh    ::
         :: -> Gsolv                  -0.020348512632 Eh    ::
         ::    -> Gelec               -0.017990461688 Eh    ::
         ::    -> Gsasa                0.001577055972 Eh    ::
         ::    -> Ghb                 -0.005015866613 Eh    ::
         ::    -> Gshift               0.001080759698 Eh    ::
         :: repulsion energy           0.387748309705 Eh    ::
         :: add. restraining           0.000000000000 Eh    ::
         :: total charge               0.000000000000 e     ::
         :::::::::::::::::::::::::::::::::::::::::::::::::::::


Property printout bound to 'properties.out'

           -------------------------------------------------
          | TOTAL ENERGY              -32.991364009233 Eh   |
          | GRADIENT NORM               0.000440568801 Eh/α |
          | HOMO-LUMO GAP               4.586614936854 eV   |
           -------------------------------------------------

------------------------------------------------------------------------
 * finished run on 2026/09/28 at 23:19:05.692     
------------------------------------------------------------------------
 total:
 * wall-time:     0 d,  0 h,  0 min,  0.059 sec
 *  cpu-time:     0 d,  0 h,  0 min,  0.384 sec
 * ratio c/w:     6.506 speedup
 SCF:
 * wall-time:     0 d,  0 h,  0 min,  0.009 sec
 *  cpu-time:     0 d,  0 h,  0 min,  0.072 sec
 * ratio c/w:     7.891 speedup


-------------------------   --------------------
FINAL SINGLE POINT ENERGY       -32.991364009230
-------------------------   --------------------


-------------
DIPOLE MOMENT
-------------
                                X             Y             Z
Total Dipole Moment    :      1.13200       0.32800       0.79500
                        -----------------------------------------
Magnitude (a.u.)       :      1.42163
Magnitude (Debye)      :      3.61350


------------------
CARTESIAN GRADIENT
------------------

   1   C   :   -0.000077945    0.000000464    0.000046389
   2   C   :    0.000043254    0.000045258   -0.000045065
   3   O   :   -0.000001955   -0.000019909    0.000034525
   4   N   :   -0.000024139   -0.000020786   -0.000109872
   5   C   :   -0.000084441    0.000094841    0.000189811
   6   C   :   -0.000042346    0.000111014   -0.000094033
   7   C   :    0.000120608   -0.000009955   -0.000045665
   8   O   :   -0.000042210   -0.000046815    0.000027811
   9   N   :   -0.000046943   -0.000122815    0.000036521
  10   C   :    0.000016978    0.000087168   -0.000130607
  11   H   :   -0.000003965   -0.000017339   -0.000001651
  12   H   :    0.000027258    0.000008554   -0.000005813
  13   H   :    0.000046362   -0.000002562   -0.000005551
  14   H   :    0.000004965   -0.000017646    0.000009447
  15   H   :    0.000038646   -0.000011914   -0.000030661
  16   H   :   -0.000001394   -0.000030805    0.000003557
  17   H   :    0.000041983   -0.000045483    0.000020057
  18   H   :    0.000011090   -0.000047397    0.000019480
  19   H   :   -0.000048787    0.000050513   -0.000005002
  20   H   :    0.000005182    0.000007758    0.000012390
  21   H   :    0.000028082   -0.000036777    0.000038015
  22   H   :   -0.000010284    0.000024632    0.000035916

Difference to translation invariance:
           :    0.0000000000    0.0000000000   -0.0000000000

Difference to rotation invariance:
           :    0.0002375235    0.0000944767    0.0000365446

Norm of the Cartesian gradient     ...    0.0004405688
RMS gradient                       ...    0.0000542303
MAX gradient                       ...    0.0001898111
------------------------------------------------------------------------------
                         ORCA GEOMETRY RELAXATION STEP
------------------------------------------------------------------------------

Reading the OPT-File                    .... done
Getting information on internals        .... done
Copying old internal coords+grads       .... done
Making the new internal coordinates     .... (2022 redundants) done
Validating the new internal coordinates .... (2022 redundants) done
Calculating the B-matrix                .... done
Calculating the G,G- and P matrices     .... done
Transforming gradient to internals      .... done
Projecting the internal gradient        .... done
Number of atoms                         ....  22
Number of internal coordinates          ....  92
Current Energy                          ....   -32.991364009 Eh
Current gradient norm                   ....     0.000440569 Eh/bohr
Maximum allowed component of the step   ....  0.300
Current trust radius                    ....  0.700
Updating the Hessian (BFGS)             .... done
Forming the augmented Hessian           .... done
Diagonalizing the augmented Hessian     .... done
Last element of RFO vector              ....  0.999970520
Lowest eigenvalues of augmented Hessian:
 -0.000000531  0.000555738  0.001344393  0.004696173  0.008179030
Length of the computed step             ....  0.007678679
The final length of the internal step   ....  0.007678679
Converting the step to Cartesian space:
 Initial RMS(Int)=    0.0008005576
Transforming coordinates:
 Iter   0:  RMS(Cart)=    0.0012822647 RMS(Int)=    0.0008003107
done
Storing new coordinates                 .... done
The predicted energy change is          ....    -0.000000265
Previously predicted energy change      ....    -0.000002476
Actually observed energy change         ....    -0.000002795
Ratio of predicted to observed change   ....     1.128654455
New trust radius                        ....     0.700000000

                                .--------------------.
          ----------------------|Geometry convergence|-------------------------
          Item                value                   Tolerance       Converged
          ---------------------------------------------------------------------
          Energy change      -0.0000027949            0.0000050000      YES
          RMS gradient        0.0000299738            0.0001000000      YES
          MAX gradient        0.0000979219            0.0003000000      YES
          RMS step            0.0008005576            0.0020000000      YES
          MAX step            0.0030375637            0.0040000000      YES
          -------------------------------------------------------------------------
          ........................................................
          Max(Bonds)      0.0009      Max(Angles)    0.03
          Max(Dihed)        0.17      Max(Improp)    0.00
          ---------------------------------------------------------------------

                    ***********************HURRAY********************
                    ***        THE OPTIMIZATION HAS CONVERGED     ***
                    *************************************************


    ---------------------------------------------------------------------------
                         Redundant Internal Coordinates

                          --- Optimized Parameters ---  
                            (Angstroem and degrees)

        Definition                    OldVal   dE/dq     Step     FinalVal
    ----------------------------------------------------------------------------
     1. B(C   1,C   0)                1.5056  0.000012 -0.0001    1.5056   
     2. B(O   2,C   1)                1.2317 -0.000031  0.0001    1.2318   
     3. B(N   3,C   1)                1.3407  0.000012  0.0000    1.3407   
     4. B(C   4,N   3)                1.4542 -0.000075  0.0001    1.4543   
     5. B(C   5,C   4)                1.5199  0.000005  0.0000    1.5199   
     6. B(C   6,C   4)                1.5432 -0.000060  0.0001    1.5433   
     7. B(O   7,C   6)                1.2267  0.000069 -0.0000    1.2267   
     8. B(N   8,C   6)                1.3339  0.000029  0.0000    1.3340   
     9. B(C   9,N   8)                1.4454 -0.000006 -0.0000    1.4453   
    10. B(H  10,C   0)                1.0869 -0.000003  0.0000    1.0869   
    11. B(H  11,C   0)                1.0864  0.000015 -0.0000    1.0864   
    12. B(H  12,C   0)                1.0858  0.000015 -0.0000    1.0858   
    13. B(H  13,N   3)                1.0090  0.000016 -0.0000    1.0090   
    14. B(H  14,C   4)                1.0968  0.000037 -0.0000    1.0968   
    15. B(H  15,C   5)                1.0859  0.000014 -0.0000    1.0859   
    16. B(H  16,C   5)                1.0874  0.000013 -0.0000    1.0874   
    17. B(H  17,C   5)                1.0859  0.000020 -0.0000    1.0858   
    18. B(H  18,O   2)                2.0089  0.000024 -0.0009    2.0080   
    19. B(H  18,N   8)                1.0157  0.000012  0.0000    1.0157   
    20. B(H  19,C   9)                1.0900  0.000011 -0.0000    1.0900   
    21. B(H  20,C   9)                1.0887  0.000021  0.0000    1.0888   
    22. B(H  21,C   9)                1.0890 -0.000025  0.0000    1.0891   
    23. A(H  11,C   0,H  12)          109.53 -0.000039    0.01    109.54   
    24. A(C   1,C   0,H  11)          110.19  0.000003   -0.01    110.18   
    25. A(C   1,C   0,H  12)          109.24  0.000019   -0.00    109.24   
    26. A(C   1,C   0,H  10)          109.70 -0.000010    0.01    109.71   
    27. A(H  10,C   0,H  12)          109.27  0.000022   -0.01    109.26   
    28. A(H  10,C   0,H  11)          108.89  0.000005    0.00    108.89   
    29. A(O   2,C   1,N   3)          122.00 -0.000016   -0.00    121.99   
    30. A(C   0,C   1,N   3)          114.87 -0.000033    0.01    114.88   
    31. A(C   0,C   1,O   2)          123.13  0.000049   -0.01    123.12   
    32. A(C   4,N   3,H  13)          116.79 -0.000029    0.01    116.80   
    33. A(C   1,N   3,C   4)          123.36  0.000040   -0.01    123.35   
    34. A(C   1,N   3,H  13)          119.81 -0.000011   -0.00    119.81   
    35. A(C   5,C   4,C   6)          111.16 -0.000017    0.00    111.16   
    36. A(N   3,C   4,C   5)          110.10  0.000012    0.00    110.10   
    37. A(N   3,C   4,C   6)          109.67  0.000039   -0.01    109.65   
    38. A(C   6,C   4,H  14)          107.79  0.000006   -0.00    107.79   
    39. A(C   5,C   4,H  14)          110.96 -0.000026    0.01    110.97   
    40. A(N   3,C   4,H  14)          107.06 -0.000014   -0.00    107.06   
    41. A(H  16,C   5,H  17)          109.94 -0.000065    0.02    109.96   
    42. A(C   4,C   5,H  17)          110.48  0.000050   -0.01    110.46   
    43. A(H  15,C   5,H  16)          107.86 -0.000033    0.01    107.87   
    44. A(C   4,C   5,H  16)          109.81  0.000058   -0.02    109.80   
    45. A(C   4,C   5,H  15)          109.55  0.000025   -0.01    109.53   
    46. A(H  15,C   5,H  17)          109.16 -0.000036    0.01    109.18   
    47. A(O   7,C   6,N   8)          124.23  0.000014    0.01    124.23   
    48. A(C   4,C   6,N   8)          113.25 -0.000015   -0.00    113.25   
    49. A(C   4,C   6,O   7)          122.52  0.000001   -0.01    122.52   
    50. A(C   9,N   8,H  18)          117.86 -0.000098    0.03    117.89   
    51. A(C   6,N   8,H  18)          118.43  0.000010   -0.02    118.41   
    52. A(C   6,N   8,C   9)          123.34  0.000086   -0.02    123.32   
    53. A(N   8,C   9,H  19)          110.40 -0.000011    0.00    110.41   
    54. A(H  20,C   9,H  21)          109.66  0.000025   -0.01    109.65   
    55. A(H  19,C   9,H  21)          109.29 -0.000012   -0.00    109.29   
    56. A(N   8,C   9,H  21)          109.96  0.000059   -0.00    109.96   
    57. A(H  19,C   9,H  20)          109.56  0.000020    0.00    109.57   
    58. A(N   8,C   9,H  20)          107.94 -0.000081    0.00    107.94   
    59. D(O   2,C   1,C   0,H  10)    116.56 -0.000001    0.16    116.72   
    60. D(O   2,C   1,C   0,H  11)   -123.57  0.000001    0.17   -123.41   
    61. D(N   3,C   1,C   0,H  11)     56.27  0.000008    0.14     56.41   
    62. D(N   3,C   1,C   0,H  10)    -63.60  0.000006    0.13    -63.47   
    63. D(O   2,C   1,C   0,H  12)     -3.20 -0.000034    0.17     -3.03   
    64. D(H  13,N   3,C   1,C   0)      4.69 -0.000008    0.04      4.72   
    65. D(C   4,N   3,C   1,C   0)   -177.71 -0.000003    0.03   -177.68   
    66. D(H  13,N   3,C   1,O   2)   -175.47 -0.000000    0.01   -175.46   
    67. D(C   4,N   3,C   1,O   2)      2.13  0.000005   -0.00      2.13   
    68. D(H  14,C   4,N   3,C   1)     34.06  0.000023   -0.01     34.05   
    69. D(C   6,C   4,N   3,H  13)     95.05  0.000008   -0.01     95.03   
    70. D(C   6,C   4,N   3,C   1)    -82.62  0.000003   -0.00    -82.62   
    71. D(C   5,C   4,N   3,H  13)    -27.57 -0.000005   -0.01    -27.57   
    72. D(C   5,C   4,N   3,C   1)    154.77 -0.000010    0.00    154.77   
    73. D(H  15,C   5,C   4,N   3)   -174.66  0.000019    0.06   -174.60   
    74. D(H  16,C   5,C   4,H  14)   -174.61 -0.000015    0.08   -174.53   
    75. D(H  16,C   5,C   4,C   6)    -54.67 -0.000037    0.08    -54.59   
    76. D(H  16,C   5,C   4,N   3)     67.05  0.000010    0.07     67.12   
    77. D(H  15,C   5,C   4,H  14)    -56.33 -0.000006    0.07    -56.26   
    78. D(H  15,C   5,C   4,C   6)     63.61 -0.000028    0.07     63.68   
    79. D(N   8,C   6,C   4,C   5)   -165.18  0.000019   -0.04   -165.22   
    80. D(N   8,C   6,C   4,N   3)     72.84 -0.000012   -0.03     72.80   
    81. D(O   7,C   6,C   4,H  14)    136.82 -0.000016   -0.02    136.80   
    82. D(O   7,C   6,C   4,C   5)     15.02  0.000023   -0.04     14.99   
    83. D(O   7,C   6,C   4,N   3)   -106.96 -0.000008   -0.03   -106.99   
    84. D(H  18,N   8,C   6,O   7)    175.15 -0.000008    0.02    175.17   
    85. D(H  18,N   8,C   6,C   4)     -4.64 -0.000004    0.02     -4.62   
    86. D(C   9,N   8,C   6,O   7)      2.41  0.000014   -0.05      2.36   
    87. D(C   9,N   8,C   6,C   4)   -177.38  0.000018   -0.04   -177.42   
    88. D(H  19,C   9,N   8,H  18)    -57.70 -0.000007   -0.00    -57.70   
    89. D(H  19,C   9,N   8,C   6)    115.08 -0.000021    0.07    115.15   
    90. D(H  21,C   9,N   8,C   6)   -124.25 -0.000005    0.07   -124.18   
    91. D(H  20,C   9,N   8,H  18)   -177.43  0.000025   -0.01   -177.44   
    92. D(H  20,C   9,N   8,C   6)     -4.65  0.000011    0.06     -4.60   
    ----------------------------------------------------------------------------

Geometry step timings:
Preparation and reading OPT file:      0.001 s ( 3.358 %)
Internal coordinates            :      0.000 s ( 0.198 %)
B/P matrices and projection     :      0.003 s ( 7.493 %)
Hessian update/contruction      :      0.017 s (49.901 %)
Making the step                 :      0.002 s ( 6.669 %)
Converting the step to Cartesian:      0.000 s ( 0.552 %)
Storing new data                :      0.005 s (15.427 %)
Checking convergence            :      0.000 s ( 0.284 %)
Final printing                  :      0.005 s (16.109 %)
Total time                      :      0.034 s
                 *******************************************************
                 *** FINAL ENERGY EVALUATION AT THE STATIONARY POINT ***
                 ***               (AFTER   20 CYCLES)               ***
                 *******************************************************
---------------------------------
CARTESIAN COORDINATES (ANGSTROEM)
---------------------------------
  C     2.242638    1.749771    1.163615
  C     1.444537    1.035993    0.105152
  O     1.177873    1.536165   -0.988479
  N     1.042573   -0.198869    0.438516
  C     0.303794   -1.069581   -0.462112
  C     0.530655   -2.524416   -0.085016
  C    -1.196349   -0.709833   -0.417541
  O    -2.028846   -1.421130    0.135373
  N    -1.480632    0.440050   -1.031053
  C    -2.807988    1.010430   -1.073315
  H     1.625914    1.905721    2.044952
  H     3.110194    1.157937    1.441605
  H     2.567420    2.711801    0.778944
  H     1.219893   -0.550305    1.367513
  H     0.667203   -0.865805   -1.476702
  H     0.054071   -3.168109   -0.818273
  H     0.078390   -2.728896    0.882452
  H     1.592950   -2.746829   -0.052054
  H    -0.712751    0.996028   -1.395618
  H    -2.832693    1.956143   -0.531969
  H    -3.491597    0.304218   -0.604998
  H    -3.107242    1.179517   -2.106731

----------------------------
CARTESIAN COORDINATES (A.U.)
----------------------------
  NO LB    ZA    FRAG    MASS        X           Y           Z
   0 C   6.0000    0    12.011    4.237971    3.306589    2.198913
   1 C   6.0000    0    12.011    2.729779    1.957742    0.198709
   2 O   8.0000    0    15.999    2.225858    2.902930   -1.867955
   3 N   7.0000    0    14.007    1.970178   -0.375809    0.828676
   4 C   6.0000    0    12.011    0.574087   -2.021216   -0.873265
   5 C   6.0000    0    12.011    1.002793   -4.770456   -0.160657
   6 C   6.0000    0    12.011   -2.260773   -1.341390   -0.789038
   7 O   8.0000    0    15.999   -3.833963   -2.685547    0.255817
   8 N   7.0000    0    14.007   -2.797989    0.831574   -1.948409
   9 C   6.0000    0    12.011   -5.306329    1.909437   -2.028271
  10 H   1.0000    0     1.008    3.072532    3.601291    3.864400
  11 H   1.0000    0     1.008    5.877415    2.188183    2.724239
  12 H   1.0000    0     1.008    4.851720    5.124562    1.471991
  13 H   1.0000    0     1.008    2.305265   -1.039926    2.584225
  14 H   1.0000    0     1.008    1.260831   -1.636135   -2.790562
  15 H   1.0000    0     1.008    0.102178   -5.986858   -1.546311
  16 H   1.0000    0     1.008    0.148135   -5.156867    1.667593
  17 H   1.0000    0     1.008    3.010239   -5.190755   -0.098367
  18 H   1.0000    0     1.008   -1.346905    1.882220   -2.637336
  19 H   1.0000    0     1.008   -5.353015    3.696575   -1.005275
  20 H   1.0000    0     1.008   -6.598163    0.574890   -1.143280
  21 H   1.0000    0     1.008   -5.871837    2.228965   -3.981145

      -----------------------------------------------------------      
     |                   =====================                   |     
     |                           x T B                           |     
     |                   =====================                   |     
     |                         S. Grimme                         |     
     |          Mulliken Center for Theoretical Chemistry        |     
     |                    University of Bonn                     |     
      -----------------------------------------------------------      

   * xtb version 6.7.1 (edcfbbe) compiled by 'albert@albert-system' on 2024-07-22

   xtb is free software: you can redistribute it and/or modify it under
   the terms of the GNU Lesser General Public License as published by
   the Free Software Foundation, either version 3 of the License, or
   (at your option) any later version.
   
   xtb is distributed in the hope that it will be useful,
   but WITHOUT ANY WARRANTY; without even the implied warranty of
   MERCHANTABILITY or FITNESS FOR A PARTICULAR PURPOSE.  See the
   GNU Lesser General Public License for more details.
   
   Cite this work as:
   * C. Bannwarth, E. Caldeweyher, S. Ehlert, A. Hansen, P. Pracht,
     J. Seibert, S. Spicher, S. Grimme, WIREs Comput. Mol. Sci., 2020, 11,
     e01493. DOI: 10.1002/wcms.1493
   
   for GFN2-xTB:
   * C. Bannwarth, S. Ehlert and S. Grimme., J. Chem. Theory Comput., 2019,
     15, 1652-1671. DOI: 10.1021/acs.jctc.8b01176
   for GFN1-xTB:
   * S. Grimme, C. Bannwarth, P. Shushkov, J. Chem. Theory Comput., 2017,
     13, 1989-2009. DOI: 10.1021/acs.jctc.7b00118
   for GFN0-xTB:
   * P. Pracht, E. Caldeweyher, S. Ehlert, S. Grimme, ChemRxiv, 2019, preprint.
     DOI: 10.26434/chemrxiv.8326202.v1
   for GFN-FF:
   * S. Spicher and S. Grimme, Angew. Chem. Int. Ed., 2020, 59, 15665-15673.
     DOI: 10.1002/anie.202004239
   
   for ALPB and GBSA implicit solvation:
   * S. Ehlert, M. Stahn, S. Spicher, S. Grimme, J. Chem. Theory Comput.,
     2021, 17, 4250-4261. DOI: 10.1021/acs.jctc.1c00471
   
   for ddCOSMO and CPCM-X implicit solvation:
   * M. Stahn, S. Ehlert, S. Grimme, J. Phys. Chem. A,
     2023, XX, XXXX-XXXX. DOI: 10.1021/acs.jpca.3c04382
   
   for DFT-D4:
   * E. Caldeweyher, C. Bannwarth and S. Grimme, J. Chem. Phys., 2017,
     147, 034112. DOI: 10.1063/1.4993215
   * E. Caldeweyher, S. Ehlert, A. Hansen, H. Neugebauer, S. Spicher,
     C. Bannwarth and S. Grimme, J. Chem. Phys., 2019, 150, 154122.
     DOI: 10.1063/1.5090222
   * E. Caldeweyher, J.-M. Mewes, S. Ehlert and S. Grimme, Phys. Chem. Chem. Phys.
     2020, 22, 8499-8512. DOI: 10.1039/D0CP00502A
   
   for sTDA-xTB:
   * S. Grimme and C. Bannwarth, J. Chem. Phys., 2016, 145, 054103.
     DOI: 10.1063/1.4959605
   
   in the mass-spec context:
   * V. Asgeirsson, C. Bauer and S. Grimme, Chem. Sci., 2017, 8, 4879.
     DOI: 10.1039/c7sc00601b
   * J. Koopman and S. Grimme, ACS Omega 2019, 4, 12, 15120-15133.
     DOI: 10.1021/acsomega.9b02011
   
   for metadynamics refer to:
   * S. Grimme, J. Chem. Theory Comput., 2019, 155, 2847-2862
     DOI: 10.1021/acs.jctc.9b00143
   
   for SPH calculations refer to:
   * S. Spicher and S. Grimme, J. Chem. Theory Comput., 2021, 17, 1701-1714
     DOI: 10.1021/acs.jctc.0c01306
   
   for ONIOM refer to:
   * C. Plett, A. Katbashev, S. Ehlert, S. Grimme, M. Bursch,
     Phys. Chem. Chem. Phys., 2023, 25, 17860-17868. DOI: 10.1039/D3CP02178E
   
   for DIPRO refer to:
   * J. Kohn, N. Gildemeister, S. Grimme, D. Fazzi, A. Hansen,
     J. Chem. Phys., 2023, just accepted.
   
   for PTB refer to:
   * S. Grimme, M. Mueller, A. Hansen, J. Chem. Phys., 2023, 158, 124111.
     DOI: 10.1063/5.0137838
   
   with help from (in alphabetical order)
   P. Atkinson, C. Bannwarth, F. Bohle, G. Brandenburg, E. Caldeweyher
   M. Checinski, S. Dohm, S. Ehlert, S. Ehrlich, I. Gerasimov, C. Hölzer
   A. Katbashev, J. Kohn, J. Koopman, C. Lavigne, S. Lehtola, F. März, M. Müller,
   F. Musil, H. Neugebauer, J. Pisarek, C. Plett, P. Pracht, F. Pultar,
   J. Seibert, P. Shushkov, S. Spicher, M. Stahn, M. Steiner, T. Strunk,
   J. Stückrath, T. Rose, and J. Unsleber
   
 * started run on 2026/09/28 at 23:19:05.863     
   ID    Z sym.   atoms
    1    6 C      1, 2, 5-7, 10
    2    8 O      3, 8
    3    7 N      4, 9
    4    1 H      11-22

           -------------------------------------------------
          |                Calculation Setup                |
           -------------------------------------------------

          program call               : /app1/ebapps/arches/flat-avx2/software/ORCA/6.1.0-gompi-2023b-avx2/bin/otool_xtb o01-xtb-opt-freq_XTB.xyz --grad -c 0 -u 0 -P 8 --namespace o01-xtb-opt-freq --input o01-xtb-opt-freq_XTB.input.tmp --alpb WATER --acc 0.200000
          hostname                   : IN-006
          calculation namespace      : o01-xtb-opt-freq
          coordinate file            : o01-xtb-opt-freq_XTB.xyz
          omp threads                :                     8


           -------------------------------------------------
          |                 G F N 2 - x T B                 |
           -------------------------------------------------

        Reference                      10.1021/acs.jctc.8b01176
      * Hamiltonian:
        H0-scaling (s, p, d)           1.850000    2.230000    2.230000
        zeta-weighting                 0.500000
      * Dispersion:
        s8                             2.700000
        a1                             0.520000
        a2                             5.000000
        s9                             5.000000
      * Repulsion:
        kExp                           1.500000    1.000000
        rExp                           1.000000
      * Coulomb:
        alpha                          2.000000
        third order                    shell-resolved
        anisotropic                    true
        a3                             3.000000
        a5                             4.000000
        cn-shift                       1.200000
        cn-exp                         4.000000
        max-rad                        5.000000

      * Solvation model:               ALPB
        Solvent                        WATER
        Parameter file                 internal GFN2-xTB/ALPB
        Dielectric constant                8.0200E+01
        Reference state                gsolv [1 M gas/solution]
        Free energy shift                  1.0808E-03 Eh       6.7819E-01 kcal/mol
        Temperature                        2.9815E+02 K
        Density                            1.0000E+00 kg/L
        Solvent mass                       1.8000E+01 g/mol
        Interaction kernel             P16
        Born radius scaling (c1)           1.4744E+00
        Born radii integrator          GBOBC
        Born offset                        0.0000E+00 a0       0.0000E+00 AA
        H-bond correction              true
        Ion screening                  false
        Surface tension                    1.0000E-05 Eh       1.5569E+01 dyn/cm
        Grid points                               230 per atom
q/qsh data taken from xtbrestart
CAMM data taken from xtbrestart

          ...................................................
          :                      SETUP                      :
          :.................................................:
          :  # basis functions                  52          :
          :  # atomic orbitals                  52          :
          :  # shells                           32          :
          :  # electrons                        58          :
          :  max. iterations                   250          :
          :  Hamiltonian                  GFN2-xTB          :
          :  restarted?                       true          :
          :  GBSA solvation                   true          :
          :  PC potential                    false          :
          :  electronic temp.          300.0000000     K    :
          :  accuracy                    0.2000000          :
          :  -> integral cutoff          0.3198970E+02      :
          :  -> integral neglect         0.2000000E-08      :
          :  -> SCF convergence          0.2000000E-06 Eh   :
          :  -> wf. convergence          0.2000000E-04 e    :
          :  Broyden damping             0.4000000          :
          :  net charge                          0          :
          :  unpaired electrons                  0          :
          ...................................................

 iter      E             dE          RMSdq      gap      omega  full diag
   1    -33.3792019 -0.333792E+02  0.305E-03    4.59       0.0  T
   2    -33.3792019 -0.196005E-08  0.182E-03    4.59      11.7  T
   3    -33.3792019 -0.147324E-09  0.173E-04    4.59     123.0  T
   4    -33.3792019 -0.291401E-09  0.704E-05    4.59     303.0  T

   *** convergence criteria satisfied after 4 iterations ***

         #    Occupation            Energy/Eh            Energy/eV
      -------------------------------------------------------------
         1        2.0000           -0.7091230             -19.2962
       ...           ...                  ...                  ...
        23        2.0000           -0.4655619             -12.6686
        24        2.0000           -0.4622458             -12.5783
        25        2.0000           -0.4551526             -12.3853
        26        2.0000           -0.4329592             -11.7814
        27        2.0000           -0.4083108             -11.1107
        28        2.0000           -0.4027314             -10.9589
        29        2.0000           -0.3907438             -10.6327 (HOMO)
        30                         -0.2221993              -6.0464 (LUMO)
        31                         -0.2129857              -5.7956
        32                          0.0042834               0.1166
        33                          0.0071925               0.1957
        34                          0.0866663               2.3583
       ...                                ...                  ...
        52                          0.6070625              16.5190
      -------------------------------------------------------------
                  HL-Gap            0.1685444 Eh            4.5863 eV
             Fermi-level           -0.3064715 Eh           -8.3395 eV

 SCC (total)                   0 d,  0 h,  0 min,  0.008 sec
 SCC setup                      ...        0 min,  0.000 sec (  4.549%)
 Dispersion                     ...        0 min,  0.000 sec (  1.900%)
 classical contributions        ...        0 min,  0.000 sec (  0.309%)
 integral evaluation            ...        0 min,  0.001 sec (  8.293%)
 iterations                     ...        0 min,  0.005 sec ( 64.124%)
 molecular gradient             ...        0 min,  0.002 sec ( 19.171%)
 printout                       ...        0 min,  0.000 sec (  1.365%)

         :::::::::::::::::::::::::::::::::::::::::::::::::::::
         ::                     SUMMARY                     ::
         :::::::::::::::::::::::::::::::::::::::::::::::::::::
         :: total energy             -32.991364391444 Eh    ::
         :: total w/o Gsasa/hb       -32.989005363168 Eh    ::
         :: gradient norm              0.000267807906 Eh/a0 ::
         :: HOMO-LUMO gap              4.586327835550 eV    ::
         ::.................................................::
         :: SCC energy               -33.379097937013 Eh    ::
         :: -> isotropic ES            0.104291626382 Eh    ::
         :: -> anisotropic ES          0.001141235210 Eh    ::
         :: -> anisotropic XC          0.010757585496 Eh    ::
         :: -> dispersion             -0.015440444400 Eh    ::
         :: -> Gsolv                  -0.020348897681 Eh    ::
         ::    -> Gelec               -0.017989869405 Eh    ::
         ::    -> Gsasa                0.001576595882 Eh    ::
         ::    -> Ghb                 -0.005016383856 Eh    ::
         ::    -> Gshift               0.001080759698 Eh    ::
         :: repulsion energy           0.387733545569 Eh    ::
         :: add. restraining           0.000000000000 Eh    ::
         :: total charge               0.000000000000 e     ::
         :::::::::::::::::::::::::::::::::::::::::::::::::::::


Property printout bound to 'properties.out'

           -------------------------------------------------
          | TOTAL ENERGY              -32.991364391444 Eh   |
          | GRADIENT NORM               0.000267807906 Eh/α |
          | HOMO-LUMO GAP               4.586327835550 eV   |
           -------------------------------------------------

------------------------------------------------------------------------
 * finished run on 2026/09/28 at 23:19:05.924     
------------------------------------------------------------------------
 total:
 * wall-time:     0 d,  0 h,  0 min,  0.059 sec
 *  cpu-time:     0 d,  0 h,  0 min,  0.380 sec
 * ratio c/w:     6.435 speedup
 SCF:
 * wall-time:     0 d,  0 h,  0 min,  0.009 sec
 *  cpu-time:     0 d,  0 h,  0 min,  0.068 sec
 * ratio c/w:     7.884 speedup


-------------------------   --------------------
FINAL SINGLE POINT ENERGY       -32.991364391440
-------------------------   --------------------


-------------
DIPOLE MOMENT
-------------
                                X             Y             Z
Total Dipole Moment    :      1.13300       0.32800       0.79600
                        -----------------------------------------
Magnitude (a.u.)       :      1.42299
Magnitude (Debye)      :      3.61694

                                *** OPTIMIZATION RUN DONE ***

      -----------------------------------------------------------      
     |                   =====================                   |     
     |                           x T B                           |     
     |                   =====================                   |     
     |                         S. Grimme                         |     
     |          Mulliken Center for Theoretical Chemistry        |     
     |                    University of Bonn                     |     
      -----------------------------------------------------------      

   * xtb version 6.7.1 (edcfbbe) compiled by 'albert@albert-system' on 2024-07-22

   xtb is free software: you can redistribute it and/or modify it under
   the terms of the GNU Lesser General Public License as published by
   the Free Software Foundation, either version 3 of the License, or
   (at your option) any later version.
   
   xtb is distributed in the hope that it will be useful,
   but WITHOUT ANY WARRANTY; without even the implied warranty of
   MERCHANTABILITY or FITNESS FOR A PARTICULAR PURPOSE.  See the
   GNU Lesser General Public License for more details.
   
   Cite this work as:
   * C. Bannwarth, E. Caldeweyher, S. Ehlert, A. Hansen, P. Pracht,
     J. Seibert, S. Spicher, S. Grimme, WIREs Comput. Mol. Sci., 2020, 11,
     e01493. DOI: 10.1002/wcms.1493
   
   for GFN2-xTB:
   * C. Bannwarth, S. Ehlert and S. Grimme., J. Chem. Theory Comput., 2019,
     15, 1652-1671. DOI: 10.1021/acs.jctc.8b01176
   for GFN1-xTB:
   * S. Grimme, C. Bannwarth, P. Shushkov, J. Chem. Theory Comput., 2017,
     13, 1989-2009. DOI: 10.1021/acs.jctc.7b00118
   for GFN0-xTB:
   * P. Pracht, E. Caldeweyher, S. Ehlert, S. Grimme, ChemRxiv, 2019, preprint.
     DOI: 10.26434/chemrxiv.8326202.v1
   for GFN-FF:
   * S. Spicher and S. Grimme, Angew. Chem. Int. Ed., 2020, 59, 15665-15673.
     DOI: 10.1002/anie.202004239
   
   for ALPB and GBSA implicit solvation:
   * S. Ehlert, M. Stahn, S. Spicher, S. Grimme, J. Chem. Theory Comput.,
     2021, 17, 4250-4261. DOI: 10.1021/acs.jctc.1c00471
   
   for ddCOSMO and CPCM-X implicit solvation:
   * M. Stahn, S. Ehlert, S. Grimme, J. Phys. Chem. A,
     2023, XX, XXXX-XXXX. DOI: 10.1021/acs.jpca.3c04382
   
   for DFT-D4:
   * E. Caldeweyher, C. Bannwarth and S. Grimme, J. Chem. Phys., 2017,
     147, 034112. DOI: 10.1063/1.4993215
   * E. Caldeweyher, S. Ehlert, A. Hansen, H. Neugebauer, S. Spicher,
     C. Bannwarth and S. Grimme, J. Chem. Phys., 2019, 150, 154122.
     DOI: 10.1063/1.5090222
   * E. Caldeweyher, J.-M. Mewes, S. Ehlert and S. Grimme, Phys. Chem. Chem. Phys.
     2020, 22, 8499-8512. DOI: 10.1039/D0CP00502A
   
   for sTDA-xTB:
   * S. Grimme and C. Bannwarth, J. Chem. Phys., 2016, 145, 054103.
     DOI: 10.1063/1.4959605
   
   in the mass-spec context:
   * V. Asgeirsson, C. Bauer and S. Grimme, Chem. Sci., 2017, 8, 4879.
     DOI: 10.1039/c7sc00601b
   * J. Koopman and S. Grimme, ACS Omega 2019, 4, 12, 15120-15133.
     DOI: 10.1021/acsomega.9b02011
   
   for metadynamics refer to:
   * S. Grimme, J. Chem. Theory Comput., 2019, 155, 2847-2862
     DOI: 10.1021/acs.jctc.9b00143
   
   for SPH calculations refer to:
   * S. Spicher and S. Grimme, J. Chem. Theory Comput., 2021, 17, 1701-1714
     DOI: 10.1021/acs.jctc.0c01306
   
   for ONIOM refer to:
   * C. Plett, A. Katbashev, S. Ehlert, S. Grimme, M. Bursch,
     Phys. Chem. Chem. Phys., 2023, 25, 17860-17868. DOI: 10.1039/D3CP02178E
   
   for DIPRO refer to:
   * J. Kohn, N. Gildemeister, S. Grimme, D. Fazzi, A. Hansen,
     J. Chem. Phys., 2023, just accepted.
   
   for PTB refer to:
   * S. Grimme, M. Mueller, A. Hansen, J. Chem. Phys., 2023, 158, 124111.
     DOI: 10.1063/5.0137838
   
   with help from (in alphabetical order)
   P. Atkinson, C. Bannwarth, F. Bohle, G. Brandenburg, E. Caldeweyher
   M. Checinski, S. Dohm, S. Ehlert, S. Ehrlich, I. Gerasimov, C. Hölzer
   A. Katbashev, J. Kohn, J. Koopman, C. Lavigne, S. Lehtola, F. März, M. Müller,
   F. Musil, H. Neugebauer, J. Pisarek, C. Plett, P. Pracht, F. Pultar,
   J. Seibert, P. Shushkov, S. Spicher, M. Stahn, M. Steiner, T. Strunk,
   J. Stückrath, T. Rose, and J. Unsleber
   
 * started run on 2026/09/28 at 23:19:06.016     
   ID    Z sym.   atoms
    1    6 C      1, 2, 5-7, 10
    2    8 O      3, 8
    3    7 N      4, 9
    4    1 H      11-22

           -------------------------------------------------
          |                Calculation Setup                |
           -------------------------------------------------

          program call               : /app1/ebapps/arches/flat-avx2/software/ORCA/6.1.0-gompi-2023b-avx2/bin/otool_xtb o01-xtb-opt-freq_XTB.xyz --hess -c 0 -u 0 -P 8 --namespace o01-xtb-opt-freq --input o01-xtb-opt-freq_XTB.input.tmp --alpb WATER --acc 0.200000
          hostname                   : IN-006
          calculation namespace      : o01-xtb-opt-freq
          coordinate file            : o01-xtb-opt-freq_XTB.xyz
          omp threads                :                     8


           -------------------------------------------------
          |                 G F N 2 - x T B                 |
           -------------------------------------------------

        Reference                      10.1021/acs.jctc.8b01176
      * Hamiltonian:
        H0-scaling (s, p, d)           1.850000    2.230000    2.230000
        zeta-weighting                 0.500000
      * Dispersion:
        s8                             2.700000
        a1                             0.520000
        a2                             5.000000
        s9                             5.000000
      * Repulsion:
        kExp                           1.500000    1.000000
        rExp                           1.000000
      * Coulomb:
        alpha                          2.000000
        third order                    shell-resolved
        anisotropic                    true
        a3                             3.000000
        a5                             4.000000
        cn-shift                       1.200000
        cn-exp                         4.000000
        max-rad                        5.000000

      * Solvation model:               ALPB
        Solvent                        WATER
        Parameter file                 internal GFN2-xTB/ALPB
        Dielectric constant                8.0200E+01
        Reference state                gsolv [1 M gas/solution]
        Free energy shift                  1.0808E-03 Eh       6.7819E-01 kcal/mol
        Temperature                        2.9815E+02 K
        Density                            1.0000E+00 kg/L
        Solvent mass                       1.8000E+01 g/mol
        Interaction kernel             P16
        Born radius scaling (c1)           1.4744E+00
        Born radii integrator          GBOBC
        Born offset                        0.0000E+00 a0       0.0000E+00 AA
        H-bond correction              true
        Ion screening                  false
        Surface tension                    1.0000E-05 Eh       1.5569E+01 dyn/cm
        Grid points                               230 per atom
q/qsh data taken from xtbrestart
CAMM data taken from xtbrestart

          ...................................................
          :                      SETUP                      :
          :.................................................:
          :  # basis functions                  52          :
          :  # atomic orbitals                  52          :
          :  # shells                           32          :
          :  # electrons                        58          :
          :  max. iterations                   250          :
          :  Hamiltonian                  GFN2-xTB          :
          :  restarted?                       true          :
          :  GBSA solvation                   true          :
          :  PC potential                    false          :
          :  electronic temp.          300.0000000     K    :
          :  accuracy                    0.2000000          :
          :  -> integral cutoff          0.3198970E+02      :
          :  -> integral neglect         0.2000000E-08      :
          :  -> SCF convergence          0.2000000E-06 Eh   :
          :  -> wf. convergence          0.2000000E-04 e    :
          :  Broyden damping             0.4000000          :
          :  net charge                          0          :
          :  unpaired electrons                  0          :
          ...................................................

 iter      E             dE          RMSdq      gap      omega  full diag
   1    -33.3792019 -0.333792E+02  0.312E-05    4.59       0.0  T
   2    -33.3792019 -0.155609E-11  0.190E-05    4.59    1119.5  T
   3    -33.3792019 -0.639488E-13  0.839E-06    4.59    2540.0  T

   *** convergence criteria satisfied after 3 iterations ***

         #    Occupation            Energy/Eh            Energy/eV
      -------------------------------------------------------------
         1        2.0000           -0.7091233             -19.2962
       ...           ...                  ...                  ...
        23        2.0000           -0.4655619             -12.6686
        24        2.0000           -0.4622459             -12.5784
        25        2.0000           -0.4551525             -12.3853
        26        2.0000           -0.4329594             -11.7814
        27        2.0000           -0.4083110             -11.1107
        28        2.0000           -0.4027314             -10.9589
        29        2.0000           -0.3907439             -10.6327 (HOMO)
        30                         -0.2221998              -6.0464 (LUMO)
        31                         -0.2129861              -5.7956
        32                          0.0042832               0.1166
        33                          0.0071924               0.1957
        34                          0.0866661               2.3583
       ...                                ...                  ...
        52                          0.6070622              16.5190
      -------------------------------------------------------------
                  HL-Gap            0.1685442 Eh            4.5863 eV
             Fermi-level           -0.3064718 Eh           -8.3395 eV

 SCC (total)                   0 d,  0 h,  0 min,  0.008 sec
 SCC setup                      ...        0 min,  0.000 sec (  4.777%)
 Dispersion                     ...        0 min,  0.000 sec (  2.035%)
 classical contributions        ...        0 min,  0.000 sec (  0.240%)
 integral evaluation            ...        0 min,  0.001 sec (  8.772%)
 iterations                     ...        0 min,  0.005 sec ( 62.897%)
 molecular gradient             ...        0 min,  0.002 sec ( 19.739%)
 printout                       ...        0 min,  0.000 sec (  1.258%)

         :::::::::::::::::::::::::::::::::::::::::::::::::::::
         ::                     SUMMARY                     ::
         :::::::::::::::::::::::::::::::::::::::::::::::::::::
         :: total energy             -32.991364391452 Eh    ::
         :: total w/o Gsasa/hb       -32.989005359855 Eh    ::
         :: gradient norm              0.000267847403 Eh/a0 ::
         :: HOMO-LUMO gap              4.586319921093 eV    ::
         ::.................................................::
         :: SCC energy               -33.379097937021 Eh    ::
         :: -> isotropic ES            0.104291057410 Eh    ::
         :: -> anisotropic ES          0.001141157465 Eh    ::
         :: -> anisotropic XC          0.010757568199 Eh    ::
         :: -> dispersion             -0.015440442270 Eh    ::
         :: -> Gsolv                  -0.020348959627 Eh    ::
         ::    -> Gelec               -0.017989928030 Eh    ::
         ::    -> Gsasa                0.001576595882 Eh    ::
         ::    -> Ghb                 -0.005016387177 Eh    ::
         ::    -> Gshift               0.001080759698 Eh    ::
         :: repulsion energy           0.387733545569 Eh    ::
         :: add. restraining           0.000000000000 Eh    ::
         :: total charge              -0.000000000000 e     ::
         :::::::::::::::::::::::::::::::::::::::::::::::::::::

           ------------------------------------------------- 
          |                Numerical Hessian                |
           ------------------------------------------------- 
step length          :   0.00500
SCC accuracy         :   0.30000
Hessian scale factor :   1.00000
frozen atoms in %    :   0.00000    0
RMS gradient         :   0.00027
estimated CPU  time      0.23 min
estimated wall time      0.03 min

writing file <hessian>.

 projected vibrational frequencies (cm⁻¹)
eigval :       -0.00    -0.00    -0.00     0.00     0.00     0.00
eigval :       50.76    69.05    85.40    97.11   126.71   151.33
eigval :      166.14   189.69   207.44   277.62   306.76   326.10
eigval :      412.14   471.45   487.14   578.68   588.56   644.80
eigval :      677.46   721.83   852.96   917.31   978.88  1001.43
eigval :     1012.57  1039.05  1056.08  1099.91  1121.15  1140.68
eigval :     1157.55  1204.25  1214.86  1275.71  1289.66  1367.87
eigval :     1389.15  1399.27  1419.35  1432.28  1439.30  1455.56
eigval :     1456.05  1467.45  1473.45  1486.57  1642.20  1678.18
eigval :     2919.54  2991.19  3008.93  3033.57  3035.38  3042.44
eigval :     3043.38  3050.75  3062.23  3068.03  3318.05  3440.90

Property printout bound to 'properties.out'
Molecule has no symmetry elements
It seems to be the C1 point group

           -------------------------------------------------
          | TOTAL ENERGY              -32.991364391708 Eh   |
          | TOTAL ENTHALPY            -32.797902300106 Eh   |
          | TOTAL FREE ENERGY         -32.849324315803 Eh   |
          | GRADIENT NORM               0.000267845189 Eh/α |
          | HOMO-LUMO GAP               4.586321511188 eV   |
           -------------------------------------------------

------------------------------------------------------------------------
 * finished run on 2026/09/28 at 23:19:06.353     
------------------------------------------------------------------------
 total:
 * wall-time:     0 d,  0 h,  0 min,  0.335 sec
 *  cpu-time:     0 d,  0 h,  0 min,  2.476 sec
 * ratio c/w:     7.380 speedup
 SCF:
 * wall-time:     0 d,  0 h,  0 min,  0.009 sec
 *  cpu-time:     0 d,  0 h,  0 min,  0.067 sec
 * ratio c/w:     7.865 speedup
 analytical hessian:
 * wall-time:     0 d,  0 h,  0 min,  0.275 sec
 *  cpu-time:     0 d,  0 h,  0 min,  2.080 sec
 * ratio c/w:     7.571 speedup


-------------------------   --------------------
FINAL SINGLE POINT ENERGY       -32.991364391440
-------------------------   --------------------


-------------
DIPOLE MOMENT
-------------
                                X             Y             Z
Total Dipole Moment    :      1.13300       0.32800       0.79600
                        -----------------------------------------
Magnitude (a.u.)       :      1.42299
Magnitude (Debye)      :      3.61694


-----------------------
VIBRATIONAL FREQUENCIES
-----------------------

Scaling factor for frequencies =  1.000000000  (already applied!)

     0:       0.00 cm**-1
     1:       0.00 cm**-1
     2:       0.00 cm**-1
     3:       0.00 cm**-1
     4:       0.00 cm**-1
     5:       0.00 cm**-1
     6:      50.76 cm**-1
     7:      69.05 cm**-1
     8:      85.40 cm**-1
     9:      97.11 cm**-1
    10:     126.71 cm**-1
    11:     151.32 cm**-1
    12:     166.14 cm**-1
    13:     189.68 cm**-1
    14:     207.44 cm**-1
    15:     277.62 cm**-1
    16:     306.76 cm**-1
    17:     326.10 cm**-1
    18:     412.14 cm**-1
    19:     471.44 cm**-1
    20:     487.13 cm**-1
    21:     578.68 cm**-1
    22:     588.55 cm**-1
    23:     644.80 cm**-1
    24:     677.45 cm**-1
    25:     721.82 cm**-1
    26:     852.95 cm**-1
    27:     917.29 cm**-1
    28:     978.87 cm**-1
    29:    1001.40 cm**-1
    30:    1012.55 cm**-1
    31:    1039.03 cm**-1
    32:    1056.06 cm**-1
    33:    1099.88 cm**-1
    34:    1121.12 cm**-1
    35:    1140.66 cm**-1
    36:    1157.53 cm**-1
    37:    1204.22 cm**-1
    38:    1214.84 cm**-1
    39:    1275.68 cm**-1
    40:    1289.63 cm**-1
    41:    1367.83 cm**-1
    42:    1389.12 cm**-1
    43:    1399.23 cm**-1
    44:    1419.33 cm**-1
    45:    1432.26 cm**-1
    46:    1439.26 cm**-1
    47:    1455.52 cm**-1
    48:    1456.01 cm**-1
    49:    1467.40 cm**-1
    50:    1473.41 cm**-1
    51:    1486.53 cm**-1
    52:    1642.19 cm**-1
    53:    1678.17 cm**-1
    54:    2919.46 cm**-1
    55:    2991.10 cm**-1
    56:    3008.84 cm**-1
    57:    3033.49 cm**-1
    58:    3035.29 cm**-1
    59:    3042.36 cm**-1
    60:    3043.29 cm**-1
    61:    3050.67 cm**-1
    62:    3062.14 cm**-1
    63:    3067.94 cm**-1
    64:    3317.96 cm**-1
    65:    3440.81 cm**-1


------------
NORMAL MODES
------------

These modes are the Cartesian displacements weighted by the diagonal matrix
M(i,i)=1/sqrt(m[i]) where m[i] is the mass of the displaced atom
Thus, these vectors are normalized but *not* orthogonal

                  0          1          2          3          4          5    
      0       0.000000   0.000000   0.000000   0.000000   0.000000   0.000000
      1       0.000000   0.000000   0.000000   0.000000   0.000000   0.000000
      2       0.000000   0.000000   0.000000   0.000000   0.000000   0.000000
      3       0.000000   0.000000   0.000000   0.000000   0.000000   0.000000
      4       0.000000   0.000000   0.000000   0.000000   0.000000   0.000000
      5       0.000000   0.000000   0.000000   0.000000   0.000000   0.000000
      6       0.000000   0.000000   0.000000   0.000000   0.000000   0.000000
      7       0.000000   0.000000   0.000000   0.000000   0.000000   0.000000
      8       0.000000   0.000000   0.000000   0.000000   0.000000   0.000000
      9       0.000000   0.000000   0.000000   0.000000   0.000000   0.000000
     10       0.000000   0.000000   0.000000   0.000000   0.000000   0.000000
     11       0.000000   0.000000   0.000000   0.000000   0.000000   0.000000
     12       0.000000   0.000000   0.000000   0.000000   0.000000   0.000000
     13       0.000000   0.000000   0.000000   0.000000   0.000000   0.000000
     14       0.000000   0.000000   0.000000   0.000000   0.000000   0.000000
     15       0.000000   0.000000   0.000000   0.000000   0.000000   0.000000
     16       0.000000   0.000000   0.000000   0.000000   0.000000   0.000000
     17       0.000000   0.000000   0.000000   0.000000   0.000000   0.000000
     18       0.000000   0.000000   0.000000   0.000000   0.000000   0.000000
     19       0.000000   0.000000   0.000000   0.000000   0.000000   0.000000
     20       0.000000   0.000000   0.000000   0.000000   0.000000   0.000000
     21       0.000000   0.000000   0.000000   0.000000   0.000000   0.000000
     22       0.000000   0.000000   0.000000   0.000000   0.000000   0.000000
     23       0.000000   0.000000   0.000000   0.000000   0.000000   0.000000
     24       0.000000   0.000000   0.000000   0.000000   0.000000   0.000000
     25       0.000000   0.000000   0.000000   0.000000   0.000000   0.000000
     26       0.000000   0.000000   0.000000   0.000000   0.000000   0.000000
     27       0.000000   0.000000   0.000000   0.000000   0.000000   0.000000
     28       0.000000   0.000000   0.000000   0.000000   0.000000   0.000000
     29       0.000000   0.000000   0.000000   0.000000   0.000000   0.000000
     30       0.000000   0.000000   0.000000   0.000000   0.000000   0.000000
     31       0.000000   0.000000   0.000000   0.000000   0.000000   0.000000
     32       0.000000   0.000000   0.000000   0.000000   0.000000   0.000000
     33       0.000000   0.000000   0.000000   0.000000   0.000000   0.000000
     34       0.000000   0.000000   0.000000   0.000000   0.000000   0.000000
     35       0.000000   0.000000   0.000000   0.000000   0.000000   0.000000
     36       0.000000   0.000000   0.000000   0.000000   0.000000   0.000000
     37       0.000000   0.000000   0.000000   0.000000   0.000000   0.000000
     38       0.000000   0.000000   0.000000   0.000000   0.000000   0.000000
     39       0.000000   0.000000   0.000000   0.000000   0.000000   0.000000
     40       0.000000   0.000000   0.000000   0.000000   0.000000   0.000000
     41       0.000000   0.000000   0.000000   0.000000   0.000000   0.000000
     42       0.000000   0.000000   0.000000   0.000000   0.000000   0.000000
     43       0.000000   0.000000   0.000000   0.000000   0.000000   0.000000
     44       0.000000   0.000000   0.000000   0.000000   0.000000   0.000000
     45       0.000000   0.000000   0.000000   0.000000   0.000000   0.000000
     46       0.000000   0.000000   0.000000   0.000000   0.000000   0.000000
     47       0.000000   0.000000   0.000000   0.000000   0.000000   0.000000
     48       0.000000   0.000000   0.000000   0.000000   0.000000   0.000000
     49       0.000000   0.000000   0.000000   0.000000   0.000000   0.000000
     50       0.000000   0.000000   0.000000   0.000000   0.000000   0.000000
     51       0.000000   0.000000   0.000000   0.000000   0.000000   0.000000
     52       0.000000   0.000000   0.000000   0.000000   0.000000   0.000000
     53       0.000000   0.000000   0.000000   0.000000   0.000000   0.000000
     54       0.000000   0.000000   0.000000   0.000000   0.000000   0.000000
     55       0.000000   0.000000   0.000000   0.000000   0.000000   0.000000
     56       0.000000   0.000000   0.000000   0.000000   0.000000   0.000000
     57       0.000000   0.000000   0.000000   0.000000   0.000000   0.000000
     58       0.000000   0.000000   0.000000   0.000000   0.000000   0.000000
     59       0.000000   0.000000   0.000000   0.000000   0.000000   0.000000
     60       0.000000   0.000000   0.000000   0.000000   0.000000   0.000000
     61       0.000000   0.000000   0.000000   0.000000   0.000000   0.000000
     62       0.000000   0.000000   0.000000   0.000000   0.000000   0.000000
     63       0.000000   0.000000   0.000000   0.000000   0.000000   0.000000
     64       0.000000   0.000000   0.000000   0.000000   0.000000   0.000000
     65       0.000000   0.000000   0.000000   0.000000   0.000000   0.000000
                  6          7          8          9         10         11    
      0       0.069799  -0.152882   0.126341   0.008207  -0.003042  -0.086490
      1       0.052364   0.059431  -0.040872   0.008101  -0.004945   0.039404
      2      -0.096112   0.034750  -0.014073   0.055020   0.004241   0.030635
      3       0.034989  -0.008089   0.041876   0.081080  -0.004821   0.032427
      4       0.021049  -0.015156   0.004941  -0.011204   0.002244  -0.011760
      5      -0.047447  -0.023391   0.018423   0.012114   0.000465  -0.024703
      6       0.082925   0.078921  -0.006289   0.293064  -0.013168   0.016027
      7      -0.045173  -0.062689   0.035214  -0.113573   0.013008   0.003434
      8      -0.091187  -0.066391   0.044284  -0.083977   0.007515  -0.014411
      9      -0.068921  -0.004865   0.002860  -0.097791   0.005913   0.140899
     10       0.081659  -0.015141   0.018170   0.061900  -0.003495  -0.059423
     11       0.048412  -0.017502   0.021330   0.075986  -0.008167  -0.069978
     12      -0.017922   0.008138  -0.013026  -0.031553   0.002665   0.006142
     13       0.006189  -0.017064   0.039032   0.084391  -0.005543  -0.010682
     14       0.079794  -0.026440   0.015910   0.005186  -0.003271  -0.001611
     15       0.009198   0.013836   0.000208   0.039089  -0.003807  -0.085979
     16       0.036339  -0.019585   0.030941   0.062494  -0.003476  -0.029082
     17       0.184032  -0.041435  -0.021022  -0.124223   0.009795  -0.014768
     18      -0.037822   0.012737  -0.019816  -0.043377   0.002703   0.017756
     19      -0.057853  -0.006221   0.011179   0.017606  -0.003973   0.048118
     20      -0.050427  -0.002216   0.014242   0.022949  -0.010010   0.067292
     21      -0.101591   0.016473  -0.008984  -0.005478  -0.002525   0.004134
     22      -0.247316   0.009448  -0.017145  -0.003668  -0.015380   0.006380
     23      -0.391428   0.022960  -0.005660   0.050413  -0.032010  -0.005869
     24       0.019216   0.016005  -0.044183  -0.100688   0.010322   0.025020
     25       0.105541   0.005211   0.004265   0.009626   0.016526   0.099323
     26       0.232013   0.015612   0.013360   0.029900   0.026992   0.163765
     27       0.001924   0.031874  -0.075795  -0.146568   0.006855  -0.039251
     28       0.056775   0.048241  -0.075388  -0.097385   0.006950  -0.071583
     29       0.147397   0.090837  -0.073787  -0.025321   0.006097  -0.106681
     30       0.096844  -0.411449  -0.003759   0.085555  -0.003191  -0.151679
     31       0.101370   0.444074   0.429297  -0.294657  -0.009244  -0.056055
     32      -0.086372  -0.212041  -0.185903   0.159961   0.004916   0.002399
     33       0.066723  -0.386933  -0.159509   0.180643  -0.003777  -0.035112
     34       0.048565  -0.069742  -0.295742   0.155969  -0.007586   0.128453
     35      -0.093600   0.482819   0.326587  -0.160053   0.000830   0.059158
     36       0.080456   0.185524   0.553510  -0.240125  -0.002085  -0.175066
     37       0.028475  -0.112118  -0.255474   0.140807  -0.002924   0.087752
     38      -0.146893  -0.108437  -0.189973   0.177410   0.010126   0.076815
     39      -0.067506  -0.108344   0.032338  -0.261360   0.014592   0.144238
     40       0.129839   0.030485  -0.006456   0.106804  -0.006807  -0.051477
     41       0.066537   0.019602   0.006366   0.123432  -0.011008  -0.067042
     42       0.018323   0.010338  -0.022434  -0.017931   0.004216  -0.061007
     43      -0.053223  -0.002552   0.061935   0.193610  -0.015973  -0.053604
     44       0.078754  -0.021751   0.016431   0.032504  -0.004982  -0.034831
     45       0.021629   0.026512  -0.004971   0.118425  -0.016226  -0.441821
     46      -0.022852  -0.013998   0.045553   0.104372  -0.007903   0.018472
     47       0.228005  -0.054519  -0.030557  -0.212603   0.021753   0.174379
     48       0.007632   0.006287   0.013204   0.006389   0.003726   0.210515
     49       0.090971  -0.034488   0.004852  -0.060690   0.010099   0.075206
     50       0.194529  -0.048078  -0.020483  -0.165572   0.016158   0.145316
     51       0.013147   0.015156   0.002032   0.051969  -0.005199  -0.110149
     52       0.057750  -0.011491   0.036489   0.128318  -0.011092  -0.194486
     53       0.202979  -0.032697  -0.039905  -0.092863   0.002004  -0.366757
     54       0.040403   0.011520  -0.055347  -0.145566   0.006899   0.013090
     55       0.156713  -0.016337   0.029837   0.012838  -0.003767   0.110864
     56       0.352059  -0.023532   0.029812  -0.042439  -0.011409   0.157889
     57      -0.100841   0.092634  -0.159729  -0.213746   0.149122  -0.273076
     58      -0.031146   0.045239  -0.055897  -0.030803   0.285195  -0.060729
     59       0.295434   0.098967  -0.112471  -0.147000  -0.481142  -0.138299
     60      -0.029693   0.035019  -0.056079  -0.078559   0.095750  -0.038177
     61      -0.046015   0.067147  -0.099109  -0.095017   0.254167  -0.150765
     62      -0.053762   0.123834  -0.080786   0.077080   0.509430  -0.224548
     63       0.122939  -0.020486  -0.035054  -0.182630  -0.226939   0.144290
     64       0.211985   0.065238  -0.134350  -0.257247  -0.523411  -0.139837
     65       0.137127   0.108891  -0.095598  -0.041766  -0.016686  -0.172012
                 12         13         14         15         16         17    
      0       0.010891   0.018952   0.031792   0.039633  -0.012868  -0.024499
      1       0.101365   0.002996   0.117491   0.149974   0.060221  -0.076129
      2      -0.109203  -0.008941  -0.041994   0.003396   0.028918   0.025576
      3      -0.049978  -0.014054   0.021606   0.086824   0.112944  -0.009879
      4      -0.042764   0.002118  -0.036380   0.056869  -0.064309  -0.059299
      5       0.044354   0.017274   0.072928   0.015971   0.013149   0.015357
      6      -0.132777  -0.002216  -0.049411   0.083723  -0.008507  -0.072665
      7      -0.152905  -0.018530  -0.135334   0.097083  -0.066205  -0.152012
      8       0.010071   0.004801   0.044155   0.035708   0.043958  -0.011408
      9      -0.020396  -0.056767   0.071839   0.106304   0.245851   0.021072
     10      -0.026639   0.023003  -0.041362   0.023308  -0.119532  -0.046428
     11       0.137126   0.043038   0.117135  -0.010182  -0.046613   0.008180
     12       0.006243  -0.013139   0.067878  -0.018261  -0.040255   0.041526
     13       0.020186   0.009824   0.044432   0.028041   0.009726   0.084266
     14       0.066686   0.019773   0.029823   0.054406   0.057117  -0.092798
     15       0.063938   0.061228  -0.160287  -0.198398   0.205121   0.004170
     16      -0.030021   0.010497  -0.000436  -0.036069   0.040080   0.136799
     17      -0.175775  -0.031828  -0.011307  -0.084961   0.049228   0.095927
     18       0.001588  -0.019268   0.079133  -0.061825  -0.098108   0.019781
     19       0.014018  -0.023766   0.080387  -0.091212   0.034968   0.038057
     20       0.067157   0.001641  -0.088479   0.073003   0.040505  -0.051409
     21      -0.025886  -0.021929   0.083287  -0.006639  -0.185427   0.271330
     22      -0.000562  -0.016838   0.059337  -0.190565   0.045303  -0.166257
     23       0.008419   0.004851  -0.105280   0.029421  -0.073774   0.058200
     24       0.060317  -0.002698  -0.020328  -0.070701  -0.120579  -0.159065
     25       0.051134  -0.040473   0.021809  -0.161658  -0.031738   0.046251
     26       0.113208  -0.041255  -0.151621  -0.049521  -0.104906   0.027045
     27       0.074802   0.033834  -0.085084   0.046512  -0.096941  -0.103939
     28       0.059588   0.044964  -0.094265   0.108841   0.072663   0.217581
     29      -0.101351  -0.002987   0.129379  -0.037694   0.004634  -0.101536
     30       0.089743   0.043649   0.073672   0.022118  -0.107698  -0.047194
     31       0.180046   0.030271   0.179057   0.156326   0.016942  -0.105394
     32      -0.068180   0.003281  -0.023689  -0.009795  -0.028130   0.015242
     33       0.062075   0.012991   0.086083   0.089096   0.046896  -0.042365
     34       0.170493  -0.011282   0.205435   0.242614   0.196258  -0.101649
     35      -0.120923  -0.020170  -0.024117   0.044621   0.127292   0.027729
     36      -0.067165   0.031378  -0.054986  -0.042922  -0.125334  -0.000458
     37       0.068738  -0.010607   0.094006   0.153796   0.090487  -0.066290
     38      -0.257501  -0.032634  -0.174981  -0.058828   0.009071   0.072899
     39       0.001228  -0.047557   0.071509   0.126361   0.319465   0.005088
     40      -0.027431   0.019672  -0.067045   0.034798  -0.167299  -0.125328
     41       0.130763   0.039857   0.105841  -0.008478  -0.078090  -0.020742
     42       0.009845  -0.013038   0.173022  -0.083485  -0.171809   0.109695
     43       0.164627   0.043679   0.054887   0.035443   0.002767   0.067700
     44       0.094756   0.025692   0.069113   0.032510   0.004512  -0.067390
     45       0.265171  -0.388877  -0.371353  -0.231814   0.382991   0.003581
     46       0.080176   0.026625   0.112800   0.142178  -0.093767  -0.003276
     47      -0.403429   0.245817   0.025769  -0.221335   0.053009   0.220759
     48      -0.092871   0.559703  -0.109526  -0.329382   0.257356  -0.013596
     49      -0.275467   0.077392   0.073138  -0.104844  -0.058448   0.330745
     50      -0.301019   0.214432   0.027541  -0.160623   0.053185   0.129670
     51       0.079281   0.060398  -0.203743  -0.238652   0.263022   0.002602
     52       0.063068  -0.076411  -0.220576  -0.211377   0.309478   0.138251
     53      -0.028489  -0.588624  -0.119925  -0.013857   0.059904   0.156393
     54       0.103024   0.017723  -0.081756  -0.010186  -0.109289  -0.158395
     55       0.016301  -0.057077   0.113534  -0.194432   0.005568   0.013716
     56       0.140148  -0.025609  -0.135176   0.020988  -0.025242  -0.028461
     57       0.017719   0.114257  -0.072647   0.272558   0.029140   0.004073
     58       0.102679   0.046777  -0.130363   0.124567   0.068844   0.243274
     59      -0.180301  -0.001602   0.193451  -0.052099   0.017558  -0.141431
     60      -0.003053  -0.002120   0.085146  -0.118451  -0.120880  -0.279406
     61       0.108157   0.092375  -0.194695   0.277611   0.126515   0.354708
     62      -0.141650   0.016063   0.227539  -0.026533   0.048990  -0.156699
     63       0.217816   0.016100  -0.313149   0.083828  -0.159295   0.048622
     64      -0.014100   0.067053  -0.067624   0.170482   0.109168   0.241058
     65      -0.156208   0.005907   0.201437  -0.038092   0.030368  -0.142706
                 18         19         20         21         22         23    
      0       0.051470  -0.002669   0.017704  -0.073024  -0.061481  -0.095769
      1       0.163071   0.027062   0.009081  -0.064357  -0.030786  -0.095007
      2      -0.072320   0.007013   0.008975  -0.119574  -0.060936  -0.130148
      3      -0.014922   0.091438  -0.058211   0.103545  -0.257458  -0.033569
      4      -0.055976  -0.061942   0.016132  -0.170064   0.038527  -0.088250
      5       0.113854  -0.003035   0.062830  -0.084258   0.093966  -0.038304
      6       0.099336  -0.012429  -0.013722   0.008680   0.137870   0.054398
      7       0.058320  -0.036870  -0.065675   0.127259   0.017965   0.107674
      8       0.140424   0.031408   0.015819   0.072979  -0.014035   0.039528
      9      -0.088563  -0.106165   0.098883  -0.051267   0.027181   0.046665
     10      -0.090889   0.022396  -0.063897  -0.069697  -0.062603  -0.057594
     11      -0.057336  -0.001522  -0.076710   0.026796  -0.011947   0.109484
     12      -0.021690  -0.039250  -0.041009  -0.117486  -0.055055   0.108835
     13      -0.117204   0.053956   0.095727   0.025246   0.012746   0.063954
     14      -0.155246  -0.089772  -0.094497   0.080613   0.033826   0.032647
     15       0.040071  -0.027791  -0.037890  -0.005547  -0.002461   0.002381
     16      -0.081128   0.118157   0.172430   0.035934   0.028303   0.094365
     17       0.038070  -0.000931  -0.005649   0.006080   0.003458  -0.008206
     18      -0.021080  -0.025123  -0.031983  -0.001424   0.008397   0.025679
     19      -0.044226  -0.028779  -0.035870   0.118277   0.087768  -0.086337
     20      -0.110145  -0.001783   0.022035   0.100252   0.110792  -0.072068
     21       0.019432  -0.026770  -0.057470   0.096374   0.038799  -0.054752
     22       0.029436  -0.008624  -0.021597  -0.073144  -0.045520   0.051922
     23       0.045673   0.023438   0.012961  -0.011938  -0.026006  -0.008335
     24      -0.031940   0.053399   0.063664   0.040687   0.016562  -0.025966
     25       0.050289  -0.022953  -0.042332   0.033265   0.007634  -0.032888
     26       0.058646   0.010756   0.012333  -0.101925  -0.058615   0.100434
     27      -0.050210   0.068664   0.091610   0.028213   0.013612  -0.007367
     28       0.031908  -0.052015  -0.065016  -0.015297  -0.006376   0.001437
     29      -0.019259   0.012375   0.018453   0.000845   0.000123   0.004736
     30       0.199779  -0.124773   0.136588  -0.248404   0.288476  -0.105019
     31       0.366814   0.000518   0.064096  -0.082246   0.176352  -0.057505
     32      -0.007319  -0.071732   0.080537  -0.233875   0.139380  -0.142024
     33       0.168512   0.046363   0.006716   0.031274  -0.089595  -0.057352
     34       0.339726   0.164537  -0.053149   0.197013  -0.207574  -0.019739
     35      -0.064494   0.140914  -0.086433   0.094476  -0.328950  -0.091123
     36      -0.124468  -0.098625   0.044581  -0.280823   0.057619  -0.160304
     37       0.083496   0.049128  -0.021745  -0.024830  -0.147713  -0.101387
     38      -0.430353  -0.020003  -0.045757  -0.204439  -0.260009  -0.207367
     39      -0.297411   0.663456  -0.732193  -0.429565   0.545443   0.121454
     40      -0.131507  -0.405858   0.185298   0.149056  -0.279183   0.003600
     41      -0.031102  -0.312442   0.177863   0.181219  -0.193493   0.114463
     42       0.040766  -0.075768  -0.091694  -0.146218  -0.140351   0.213106
     43      -0.162169   0.084226   0.138110   0.042988   0.007199   0.185713
     44      -0.134634  -0.096585  -0.094891   0.070793  -0.004491   0.092358
     45       0.070654  -0.013095  -0.031914   0.077655   0.054063  -0.079427
     46      -0.240505   0.028971   0.065465  -0.000093  -0.003231   0.144618
     47       0.159642   0.067684   0.085413  -0.013896  -0.004173  -0.000995
     48       0.070438  -0.062038  -0.055803   0.079575   0.025821  -0.065205
     49       0.061447   0.236861   0.311209  -0.089305  -0.023753   0.182101
     50       0.082791   0.010542   0.018589   0.017408   0.005205  -0.018071
     51       0.055574  -0.029365  -0.039167   0.036938   0.019957  -0.033599
     52      -0.004810   0.111928   0.181116   0.222533   0.125537  -0.064627
     53       0.064173   0.052591   0.057701  -0.052790  -0.016020   0.036782
     54      -0.051084   0.091455   0.097381   0.115408   0.034616  -0.155683
     55       0.009697  -0.021388  -0.079776   0.210413   0.063974  -0.340869
     56      -0.039526   0.089131   0.023911   0.308544   0.065084  -0.618987
     57      -0.092781   0.036814   0.068381  -0.014011  -0.000827   0.042507
     58       0.038426  -0.052692  -0.068057  -0.025700  -0.012885   0.005696
     59      -0.035515   0.012395   0.024877   0.018371   0.012813   0.000990
     60      -0.069222   0.095289   0.116239   0.127002   0.061213  -0.097434
     61       0.030667  -0.074722  -0.086785  -0.083521  -0.038539   0.062590
     62      -0.050769   0.020595   0.026044   0.048813   0.023911  -0.041081
     63       0.013592   0.047966   0.064419  -0.086081  -0.044906   0.092661
     64       0.013941  -0.064190  -0.068038  -0.031783  -0.010199   0.032812
     65      -0.041552   0.015249   0.025174   0.031649   0.017344  -0.018731
                 24         25         26         27         28         29    
      0      -0.028450  -0.019926  -0.010962   0.041205  -0.089277  -0.136755
      1      -0.025741  -0.009244  -0.006927   0.066150  -0.010630   0.042067
      2      -0.033318  -0.014498  -0.021349   0.020167  -0.217876   0.053270
      3      -0.016858  -0.033339   0.004692  -0.023223   0.087861   0.141787
      4      -0.013992   0.022829   0.004557   0.006609   0.120003  -0.055928
      5       0.000136  -0.003427  -0.004034  -0.055431   0.115038  -0.054924
      6       0.018398   0.023264  -0.000400  -0.002066   0.033530  -0.023072
      7       0.014838   0.021041   0.012388   0.061823  -0.076449   0.003521
      8      -0.001182  -0.026746  -0.004052  -0.068388   0.141578   0.017550
      9      -0.000973   0.119718   0.014403   0.037950   0.042420  -0.007639
     10      -0.000325  -0.026089   0.010562  -0.070310   0.113287   0.023095
     11       0.027611   0.054717   0.062210   0.165277  -0.010184   0.003018
     12       0.112666  -0.103065   0.147073  -0.085968  -0.042327  -0.007004
     13       0.004299   0.032506   0.000008  -0.029392   0.037867   0.008561
     14      -0.047911   0.128130  -0.092854  -0.078954  -0.048211   0.003276
     15       0.013863  -0.020140   0.071589  -0.050587  -0.023318  -0.001580
     16       0.011429   0.030694  -0.068562  -0.055305  -0.085592  -0.013868
     17      -0.004596   0.008784  -0.018093  -0.068110  -0.000184  -0.006995
     18       0.038808  -0.176017  -0.164748   0.016003  -0.003559  -0.006659
     19      -0.037438  -0.160118   0.054484   0.011419   0.010659   0.003732
     20       0.015951  -0.366200   0.070514   0.003430  -0.010545  -0.008369
     21      -0.044289   0.032363  -0.080594   0.014992   0.007216   0.003297
     22       0.050384  -0.033260  -0.128757   0.012559   0.006829   0.001735
     23       0.001498   0.143900   0.069691  -0.014283  -0.005170  -0.000260
     24      -0.037849   0.056872   0.063911  -0.016958  -0.020549  -0.006305
     25      -0.070174   0.109260   0.125902  -0.019546  -0.008738   0.001046
     26      -0.018743  -0.018903  -0.086112   0.010407   0.008847   0.003725
     27      -0.030896   0.021575  -0.012045   0.022963   0.024414   0.009536
     28       0.009517  -0.000578   0.049199  -0.019365  -0.017381  -0.007778
     29      -0.002703  -0.004581  -0.023634   0.006996   0.005034   0.001145
     30      -0.003547   0.004327  -0.027742  -0.029465  -0.305225   0.476799
     31      -0.009687  -0.028784  -0.042282  -0.087166  -0.412945   0.253825
     32      -0.018667   0.005979  -0.025490   0.001478  -0.281331   0.409567
     33      -0.028442  -0.047762  -0.034475  -0.050649  -0.326025  -0.172458
     34      -0.034059  -0.073903  -0.045974  -0.079416  -0.386511  -0.319701
     35      -0.048256  -0.059302  -0.026347   0.008128  -0.240301  -0.508616
     36      -0.023459   0.033397   0.020719   0.176684   0.136329   0.179432
     37      -0.034268  -0.008544   0.003823   0.115274   0.082218  -0.150532
     38      -0.052072   0.034892   0.036333   0.281074   0.256752  -0.171756
     39      -0.021173   0.235700   0.006046   0.082806  -0.037145   0.018216
     40       0.010807   0.037894   0.020985  -0.009137  -0.033838   0.053968
     41       0.035283   0.057032   0.065950   0.176561  -0.051913   0.009818
     42       0.113474   0.067791   0.138843  -0.011272  -0.086154  -0.023204
     43       0.079900  -0.020472   0.182397   0.257596  -0.016067   0.041175
     44      -0.025942   0.164398  -0.044025   0.013065  -0.069422   0.004482
     45      -0.066642   0.040032  -0.100916   0.141340   0.072825   0.011124
     46       0.028328   0.097892  -0.101910  -0.575315  -0.232229  -0.062782
     47       0.032311  -0.091857   0.125347   0.288246   0.074250   0.030678
     48      -0.073231   0.087363  -0.135520   0.064760   0.058283   0.003834
     49       0.159066  -0.217576   0.330908   0.327648  -0.061742   0.032617
     50      -0.010601   0.001952  -0.019889   0.076119   0.041129   0.006609
     51      -0.026921   0.017505  -0.022485   0.027937   0.015877   0.002237
     52      -0.162082   0.179275  -0.446578   0.310909   0.084316   0.005163
     53       0.071008  -0.123055   0.207376   0.095789   0.003463   0.018949
     54       0.049361   0.217664   0.184694  -0.048788  -0.013585  -0.018372
     55       0.380333   0.262858  -0.075764   0.024943  -0.021219   0.002650
     56       0.826089   0.536353  -0.143415   0.017065   0.003758  -0.014358
     57       0.063606  -0.104021  -0.275764   0.060558   0.044550   0.025116
     58       0.035883  -0.031769  -0.016628  -0.002620  -0.007296  -0.004934
     59      -0.048652   0.037133   0.072618  -0.016632  -0.007376  -0.001479
     60      -0.124065   0.184332   0.313013  -0.040939  -0.011617  -0.005884
     61       0.103995  -0.132663  -0.230508   0.032390   0.011415   0.006456
     62      -0.003525   0.047297   0.055830  -0.011639  -0.004109  -0.000720
     63       0.029339  -0.130074  -0.293323   0.078732   0.051809   0.018840
     64       0.004943  -0.026133  -0.018092  -0.010158  -0.008387  -0.000191
     65      -0.022057   0.032299   0.051880  -0.010049  -0.003687  -0.001207
                 30         31         32         33         34         35    
      0      -0.014426   0.022364  -0.002404  -0.002245   0.003584   0.000156
      1      -0.121807   0.055929  -0.025854  -0.003380   0.003619   0.004966
      2       0.035217  -0.006257   0.014605  -0.000005   0.010954  -0.011973
      3      -0.002895  -0.020623  -0.004091   0.002485  -0.004034  -0.001856
      4       0.032514  -0.028737  -0.001693   0.003312  -0.006908   0.001238
      5       0.026988  -0.011286  -0.007304   0.000674  -0.009626   0.007107
      6      -0.006073   0.005126  -0.002401   0.000005  -0.004137   0.007341
      7      -0.029823   0.014859   0.011710  -0.000946   0.016317  -0.020122
      8       0.003438  -0.010142  -0.019709   0.001048  -0.024041   0.034478
      9       0.039302  -0.023880   0.020382   0.006454  -0.007581   0.002664
     10       0.095876  -0.061762   0.013828   0.003218  -0.026418   0.021584
     11      -0.029242  -0.021217   0.050105   0.004293   0.001383  -0.010938
     12      -0.036778  -0.048238   0.094889  -0.017646  -0.000063  -0.028792
     13       0.060151   0.064001   0.018498  -0.009835   0.139048  -0.198204
     14       0.014784   0.043947  -0.113730   0.001754  -0.020776   0.055788
     15       0.006395   0.114340  -0.057364   0.009897  -0.006697   0.037307
     16      -0.098572  -0.044528  -0.009972   0.005620  -0.080310   0.109021
     17      -0.036163   0.028405   0.056783  -0.000031   0.057827  -0.087087
     18      -0.019282  -0.068215  -0.126241   0.000339   0.048470  -0.010438
     19       0.012993   0.068478   0.129503  -0.005467  -0.035398   0.037302
     20      -0.031349  -0.050804  -0.003067  -0.009165   0.002080  -0.009151
     21       0.016428   0.036834  -0.018577   0.003777   0.016163   0.031304
     22       0.009565   0.012216  -0.024810   0.002320   0.041864   0.027646
     23      -0.003783  -0.008692   0.010136  -0.002547  -0.024583  -0.022191
     24      -0.028070  -0.073395  -0.119403  -0.014348  -0.103858  -0.155130
     25       0.000637   0.014623   0.014726  -0.030786  -0.056388  -0.012331
     26       0.010073   0.012603   0.005813  -0.056757   0.047853   0.038166
     27       0.038522   0.095684   0.141510   0.024025   0.079694   0.125698
     28      -0.031933  -0.089067  -0.090145   0.063207   0.084431   0.019643
     29       0.006117   0.023941   0.028856   0.117412  -0.057895  -0.047004
     30       0.036444  -0.029337   0.025035   0.001506   0.024215  -0.031702
     31       0.204461  -0.085601   0.054354   0.004673   0.017471  -0.026242
     32       0.008663  -0.013663   0.017641   0.000954   0.021380  -0.026233
     33       0.209111  -0.063367   0.048941   0.002073   0.009276  -0.016537
     34       0.283082  -0.079476   0.062599   0.001852   0.013792  -0.024834
     35       0.149672  -0.014161   0.033632  -0.002804   0.013096  -0.019190
     36      -0.333989   0.129712  -0.062294  -0.006880  -0.002291   0.022196
     37      -0.181595   0.090527  -0.041382  -0.005716  -0.001248   0.015668
     38      -0.443120   0.196539  -0.089288  -0.011317  -0.007697   0.039321
     39       0.120761  -0.092033   0.009256   0.016911  -0.131802   0.204962
     40       0.268465  -0.186250  -0.011025   0.027588  -0.273742   0.429945
     41       0.021652  -0.056120   0.040468   0.011565  -0.070794   0.109037
     42      -0.119218  -0.231806   0.501266  -0.021278  -0.066831   0.028431
     43       0.290780   0.254815  -0.358375   0.015180   0.213158  -0.315873
     44       0.028193   0.007664  -0.026531   0.005055  -0.030551   0.046954
     45       0.025176  -0.176012   0.126094  -0.020762   0.040481  -0.101920
     46      -0.333539   0.205895   0.048915   0.032020  -0.029843   0.076827
     47       0.174460  -0.016575  -0.119083  -0.005450  -0.018723   0.032257
     48      -0.007844  -0.169133   0.160930  -0.020174   0.052302  -0.118377
     49       0.204114   0.096966  -0.419311   0.019653  -0.250348   0.419742
     50       0.030035  -0.064814   0.050094  -0.009911   0.039102  -0.075084
     51       0.005878  -0.021079   0.027549  -0.003528   0.009235  -0.015646
     52      -0.063663  -0.578598   0.283974  -0.045394  -0.027234  -0.070736
     53       0.134330   0.149150  -0.199075   0.010858  -0.040274   0.101219
     54      -0.060763  -0.174721  -0.108750  -0.000356   0.081561  -0.042462
     55       0.035973   0.125642   0.018843  -0.025228  -0.241567  -0.116260
     56      -0.002765  -0.024026   0.032860  -0.018723   0.150602   0.114517
     57       0.101065   0.265051   0.184804  -0.616241  -0.300135  -0.084067
     58      -0.016307  -0.032819  -0.033769   0.207875  -0.040774  -0.066504
     59      -0.009149  -0.042176  -0.043055  -0.210705   0.129139   0.102286
     60      -0.034001  -0.129408  -0.016782  -0.009892   0.532852   0.404929
     61       0.034092   0.107873   0.026727  -0.123322  -0.323246  -0.219991
     62      -0.002935  -0.020062  -0.022680  -0.210305   0.066284   0.063067
     63       0.076108   0.242184   0.261222   0.527454  -0.332468  -0.199163
     64       0.002022  -0.004384  -0.062720  -0.384870  -0.074193  -0.039493
     65      -0.003017  -0.016137  -0.015800  -0.124723   0.043790   0.038512
                 36         37         38         39         40         41    
      0      -0.031088   0.015832   0.004937   0.011237  -0.005528  -0.070458
      1      -0.068301   0.034975   0.013462   0.016849  -0.011412  -0.053737
      2       0.006050   0.000690   0.000866   0.002142  -0.003639  -0.110838
      3       0.041997  -0.049030  -0.015185  -0.052588   0.036906   0.004347
      4       0.071627  -0.084887  -0.030792  -0.083396   0.055054   0.008721
      5       0.008676  -0.019019   0.000507  -0.026850   0.029847  -0.000286
      6      -0.009844   0.011336   0.003609   0.008589  -0.005937   0.001525
      7       0.019500  -0.017529   0.000937  -0.002593   0.004778  -0.004146
      8      -0.040698   0.043031   0.004153   0.020473  -0.018528   0.007527
      9       0.094968   0.000425  -0.003310   0.001379  -0.012972   0.004328
     10       0.050939   0.008510  -0.005259   0.031622  -0.017997   0.009214
     11       0.184911  -0.031918  -0.021523   0.028046  -0.006973  -0.001725
     12      -0.174817  -0.047505  -0.038322   0.108403   0.094165  -0.004479
     13      -0.075867   0.008754   0.053390   0.050600  -0.155267  -0.012700
     14      -0.195448  -0.096119   0.002463   0.002321   0.005889   0.000189
     15       0.079586   0.001315   0.026405  -0.026839  -0.040662   0.000539
     16       0.030890  -0.020956  -0.021486  -0.010335   0.025852   0.000794
     17       0.076617   0.072833  -0.016006  -0.006051   0.046701   0.001122
     18       0.023805   0.023610  -0.076384  -0.028690  -0.061659   0.000626
     19      -0.004898  -0.020135   0.083410   0.002188   0.047599   0.001176
     20       0.011099   0.018497  -0.019613  -0.027407  -0.025165  -0.000054
     21       0.020636  -0.007231   0.043420   0.009983   0.027407   0.000088
     22       0.016158  -0.003835   0.038428   0.008052   0.015149  -0.000186
     23      -0.016681   0.001423  -0.030996  -0.002554  -0.013187   0.000005
     24       0.025823   0.011535   0.038234  -0.003157  -0.014265  -0.001106
     25      -0.018150   0.000147  -0.071269   0.001220  -0.004565   0.000757
     26       0.011999  -0.001977   0.032968   0.001899   0.007740  -0.000090
     27      -0.036399  -0.000579  -0.087063  -0.004163  -0.016055   0.000367
     28       0.005060   0.007435  -0.002010  -0.005444  -0.012461  -0.000400
     29      -0.012805  -0.007491   0.015967   0.007277   0.007697  -0.000071
     30       0.023250  -0.016665   0.002376   0.015347  -0.019924   0.509351
     31       0.080948  -0.025525  -0.010287   0.008875  -0.011251   0.140847
     32       0.012401  -0.007743   0.004774   0.009424  -0.014601   0.299479
     33       0.057176  -0.016680  -0.009658   0.009574  -0.009531   0.051905
     34       0.067610  -0.026910  -0.012242   0.018278  -0.019591   0.349616
     35       0.002069  -0.015849  -0.001299   0.019379  -0.014057   0.486250
     36      -0.141309   0.097545   0.033110   0.067663  -0.046319   0.203378
     37      -0.104594   0.058937   0.020424   0.038094  -0.022177   0.090842
     38      -0.211339   0.147076   0.049084   0.110552  -0.068585   0.440189
     39      -0.027812   0.356747   0.078934   0.079895  -0.052296  -0.022580
     40      -0.103986   0.676248   0.145094   0.230104  -0.084869  -0.043057
     41       0.144348   0.152282   0.020288   0.087997  -0.024495  -0.017880
     42      -0.352685   0.123770   0.305854  -0.770708  -0.351871   0.022941
     43      -0.249928   0.424248  -0.152149  -0.332186   0.744392   0.039792
     44      -0.267548   0.052934   0.079966  -0.376712   0.022398   0.019506
     45      -0.135803  -0.002509  -0.025336   0.063837   0.039475  -0.006063
     46       0.415329   0.171066  -0.044293  -0.079680   0.138226   0.009054
     47      -0.163511  -0.107573   0.039515   0.003344  -0.105941  -0.002497
     48      -0.146038   0.013412  -0.018481   0.063361   0.017622  -0.009746
     49      -0.199683  -0.233891   0.061731  -0.039920  -0.077699   0.006634
     50      -0.086947   0.015189  -0.014352   0.026926   0.036906  -0.002560
     51      -0.020020   0.000825   0.002211  -0.003918   0.013280   0.002170
     52      -0.377376  -0.032395  -0.106470   0.058909   0.221003   0.010493
     53      -0.069498  -0.089834   0.060296   0.000232  -0.145676  -0.007913
     54       0.098532  -0.075364   0.556951   0.076465   0.220068   0.004586
     55      -0.106140   0.093877  -0.627831  -0.091151  -0.268364  -0.005851
     56       0.023683  -0.037028   0.236263   0.019079   0.086563   0.000128
     57       0.040640  -0.017375   0.076377   0.016133   0.077650  -0.000368
     58      -0.013161  -0.002234   0.004186   0.004251  -0.004309  -0.000736
     59       0.020564   0.009343  -0.007790  -0.010763  -0.005636   0.000798
     60      -0.023474   0.017414  -0.094125  -0.014635  -0.009008  -0.002346
     61       0.019248  -0.003366   0.015975  -0.000023  -0.010743   0.002028
     62       0.022679   0.005573   0.007918  -0.004792   0.010052   0.000067
     63      -0.067411  -0.040944   0.071731   0.039246   0.073172  -0.000724
     64       0.044499   0.010192   0.000881  -0.006593  -0.004028  -0.000429
     65       0.008423   0.005777  -0.019187  -0.006474  -0.014993   0.000075
                 42         43         44         45         46         47    
      0       0.000520   0.000376   0.029672   0.002934  -0.024015  -0.051857
      1       0.000746   0.000015   0.042637   0.002855  -0.064984   0.021749
      2       0.000589  -0.001135   0.034188   0.005198   0.017783   0.017680
      3      -0.003656  -0.001829  -0.151065  -0.013207   0.001527  -0.005256
      4      -0.004291  -0.002808  -0.239301  -0.022501   0.014846   0.008928
      5      -0.003751  -0.000045  -0.102163  -0.009058  -0.009673   0.004996
      6       0.000524   0.000338   0.023434   0.002537   0.003739  -0.000519
      7      -0.001005  -0.000859  -0.012474   0.000894  -0.006262   0.000110
      8       0.002267   0.001641   0.065187   0.004729   0.014116  -0.000395
      9       0.002692   0.003141   0.133599   0.007444  -0.002877  -0.000677
     10       0.005443   0.008187   0.287133   0.019085  -0.007129  -0.004647
     11       0.000812  -0.003175   0.002118  -0.003477  -0.000159  -0.000470
     12      -0.005164   0.002995  -0.030815  -0.021594   0.000386   0.000575
     13       0.003595  -0.028530  -0.101375   0.002010  -0.002485  -0.000004
     14      -0.000722   0.001109   0.001098   0.001642   0.001869  -0.000489
     15       0.003319  -0.031666   0.003407   0.000703  -0.000272  -0.000202
     16      -0.007793   0.136863  -0.000639   0.012567   0.000360   0.000308
     17       0.000711  -0.030115   0.004038  -0.001256  -0.000321  -0.001564
     18       0.020717  -0.013656  -0.029218   0.148504  -0.004056   0.001734
     19       0.001484   0.003110   0.016495  -0.081003   0.002252  -0.000775
     20      -0.004699   0.001377  -0.004960   0.023029  -0.000075   0.000554
     21      -0.014225   0.008364   0.010398  -0.050005   0.001695  -0.000407
     22      -0.013174   0.004903   0.006892  -0.030310   0.000931  -0.000014
     23       0.010137  -0.004291  -0.005860   0.025515  -0.000834   0.000540
     24      -0.011054   0.003951   0.011266  -0.115498   0.002219  -0.001027
     25       0.007867  -0.008277  -0.024437   0.162815  -0.003143   0.003418
     26      -0.002730   0.003822   0.011075  -0.068738   0.001174   0.002471
     27      -0.105840  -0.007971   0.002298   0.024552  -0.000967   0.004561
     28       0.039403   0.006447   0.010381  -0.100502   0.001392   0.011740
     29      -0.002410  -0.002160  -0.004902   0.040683  -0.000922   0.027495
     30       0.000567   0.003486  -0.035907  -0.009541  -0.238799  -0.108756
     31      -0.002133   0.000119  -0.046757   0.021169   0.532562  -0.386805
     32       0.000853   0.001603  -0.006837  -0.008366  -0.257126   0.013501
     33       0.001175  -0.001907   0.007326   0.009412   0.320852   0.236431
     34       0.002798  -0.000067  -0.012572   0.001610   0.235386   0.351959
     35       0.002497   0.005695  -0.026421  -0.022149  -0.484533  -0.059927
     36       0.003258  -0.001123   0.087495   0.009079   0.176119   0.562759
     37      -0.000185   0.002774   0.019557   0.008339   0.066328  -0.278373
     38       0.001094   0.004627   0.055152   0.022916   0.394628  -0.215794
     39      -0.005989  -0.010268  -0.379004  -0.020927  -0.021415  -0.001653
     40      -0.011717  -0.011302  -0.619323  -0.038889  -0.042772   0.005469
     41      -0.004148  -0.009304  -0.249733  -0.020237  -0.010071   0.003444
     42       0.010206   0.001554   0.152357   0.014341   0.011079  -0.001990
     43      -0.018471   0.094345   0.229390   0.036519   0.013869   0.001859
     44       0.000588   0.025513   0.136716   0.016316   0.007787  -0.001282
     45      -0.017918   0.236779  -0.006649   0.000816  -0.003286  -0.009752
     46       0.020391  -0.422703  -0.036377  -0.048970   0.006009   0.005124
     47      -0.008454   0.248804   0.032710   0.046334  -0.002860   0.001524
     48      -0.018452   0.234419  -0.168416  -0.021459   0.007001   0.012538
     49       0.028413  -0.523515   0.077786  -0.055119  -0.000384  -0.008640
     50      -0.002825  -0.018280  -0.062092  -0.023284   0.003292   0.003581
     51       0.008216  -0.146541   0.020272  -0.011735   0.000051  -0.000425
     52       0.027056  -0.544329   0.087725  -0.041782   0.002065   0.001847
     53      -0.006069   0.138339  -0.167838  -0.006490   0.008266   0.019472
     54      -0.072474  -0.022946  -0.028903   0.417410  -0.003637   0.005246
     55       0.075169   0.020212   0.024809  -0.412371   0.003679  -0.005453
     56      -0.020634  -0.006534  -0.004730   0.132411   0.002408   0.001137
     57       0.519487   0.029057  -0.037388   0.024147  -0.000300   0.172996
     58       0.011326  -0.005480  -0.021323   0.224450  -0.004841   0.076616
     59       0.026932   0.015005   0.041219  -0.446851   0.009042  -0.115625
     60       0.486060   0.034608  -0.016825   0.008389   0.000375  -0.050499
     61      -0.411570  -0.027168   0.017192  -0.032766   0.002168  -0.152397
     62       0.131350   0.008600  -0.011849   0.048050   0.003113  -0.302451
     63       0.493159   0.022863  -0.050527   0.144251   0.001298  -0.177447
     64      -0.075938  -0.017275  -0.043185   0.500200  -0.007395  -0.095475
     65      -0.168890  -0.011980   0.005022   0.067047  -0.002066   0.042360
                 48         49         50         51         52         53    
      0       0.026332   0.003985   0.000578  -0.000351  -0.031604   0.001602
      1      -0.011707   0.001114   0.001501  -0.001027  -0.004090   0.001420
      2      -0.009094   0.000590   0.001688  -0.000822  -0.065545   0.003167
      3       0.003222  -0.007416  -0.002848   0.004375   0.128066  -0.005180
      4      -0.004109  -0.011423  -0.003621   0.005754  -0.368619  -0.004198
      5      -0.001742  -0.007311  -0.002931   0.004172   0.654871  -0.004039
      6       0.000178   0.001338   0.000857  -0.000663  -0.093291   0.003944
      7       0.000047  -0.000447   0.000366   0.000118   0.178148   0.000597
      8      -0.000196   0.003295   0.001331  -0.001772  -0.388457   0.001494
      9      -0.000093   0.009130   0.000097  -0.006006   0.034148  -0.004709
     10       0.001789   0.016343   0.001762  -0.008756   0.125297   0.001551
     11       0.000143   0.004477  -0.001075  -0.001770  -0.054150  -0.003150
     12      -0.001125  -0.003829  -0.006693   0.019300  -0.011817  -0.027188
     13      -0.000127  -0.013662   0.002797   0.002346  -0.011611  -0.019861
     14       0.000015  -0.015652  -0.000506  -0.000186   0.005680   0.020072
     15       0.000305  -0.007938   0.006125   0.060694  -0.004795  -0.000003
     16       0.000814  -0.017816   0.003684   0.017402  -0.006285   0.003998
     17       0.002931  -0.058551  -0.004761  -0.010095  -0.014320  -0.000151
     18       0.002994  -0.004234   0.070040  -0.007266   0.017624   0.404414
     19      -0.001782  -0.000263  -0.026277   0.011262  -0.013856   0.528381
     20       0.000756   0.001399   0.003803  -0.006402   0.000238  -0.372842
     21      -0.000823   0.002449  -0.027969  -0.000959  -0.007527  -0.288652
     22      -0.000131   0.001932  -0.020201  -0.000565  -0.002283  -0.248291
     23       0.001250  -0.001542   0.016210   0.001225   0.002928   0.192306
     24      -0.001658   0.001227  -0.047414   0.007844  -0.008682   0.042740
     25       0.006612  -0.002393   0.082245  -0.013511   0.002346  -0.186396
     26       0.004894   0.001470  -0.035573   0.005867   0.001420   0.091510
     27       0.008568  -0.000533   0.016702  -0.001486   0.003721   0.000855
     28       0.024485  -0.001642   0.028702  -0.000821   0.005468   0.027242
     29       0.052603   0.002822  -0.018244   0.001154  -0.002991  -0.011465
     30       0.054308   0.008634  -0.002139  -0.001565  -0.118979  -0.001951
     31       0.202152   0.012048  -0.002794   0.004154   0.020564   0.007360
     32      -0.008585   0.003499  -0.000122  -0.002232  -0.103454  -0.001057
     33      -0.119141  -0.015465   0.001749  -0.000354   0.005711   0.001757
     34      -0.178871  -0.020708   0.001094  -0.001864  -0.041710  -0.000604
     35       0.027610   0.008947  -0.002748  -0.002741  -0.166468  -0.006505
     36      -0.287802  -0.027602   0.005098  -0.004017   0.145687   0.000472
     37       0.143405   0.013459  -0.001558   0.001259   0.050432   0.002292
     38       0.113459   0.007711  -0.001440   0.000680   0.265849   0.003377
     39       0.002573  -0.017506   0.000825   0.019489   0.036693   0.003481
     40      -0.000563  -0.049156  -0.000663   0.035824   0.153754   0.010240
     41      -0.001148  -0.016741  -0.002258   0.010699  -0.002018  -0.002968
     42       0.002249  -0.000511  -0.006118  -0.025111   0.011402  -0.186556
     43      -0.001175   0.052952   0.014070   0.009507  -0.064081   0.096746
     44       0.000918  -0.001103  -0.000644  -0.015842   0.015602  -0.048305
     45       0.018473  -0.367004  -0.075434  -0.488373  -0.000039   0.067132
     46      -0.010986   0.262728  -0.010057  -0.139501  -0.023878   0.005038
     47      -0.001208  -0.016256   0.059127   0.454153   0.008740  -0.038090
     48      -0.020350   0.445738  -0.023258  -0.434770   0.016751   0.087654
     49       0.009327  -0.172266  -0.067298  -0.386953   0.030718   0.006127
     50      -0.006771   0.157308  -0.027628  -0.297198   0.005479   0.036115
     51      -0.000702   0.012116   0.005643   0.079769  -0.001180  -0.019628
     52      -0.008655   0.173370   0.029833   0.292822   0.018618  -0.108294
     53      -0.033837   0.704558   0.042897  -0.012288   0.026262   0.040550
     54       0.006089  -0.002434   0.193763  -0.026721  -0.058696  -0.000500
     55      -0.005879   0.001146  -0.177148   0.024814   0.069703  -0.050640
     56       0.000417  -0.000042   0.052408  -0.007277  -0.101807   0.069205
     57       0.341084   0.004633   0.164773  -0.022227  -0.010191  -0.219757
     58       0.140928   0.021059  -0.302646   0.026239  -0.005925   0.025281
     59      -0.210267  -0.036529   0.529112  -0.045425   0.015280  -0.060378
     60      -0.099997   0.007147  -0.231706   0.020800   0.015320  -0.005441
     61      -0.293295  -0.019410   0.200052  -0.018173  -0.006196   0.020279
     62      -0.587738  -0.016746  -0.053891   0.002316   0.004930  -0.017463
     63      -0.342378  -0.013869   0.054849  -0.013560  -0.001945  -0.198645
     64      -0.202031   0.027995  -0.616284   0.052337  -0.012768   0.087647
     65       0.078631   0.008900  -0.114326   0.012038  -0.003009   0.073983
                 54         55         56         57         58         59    
      0       0.000000  -0.000158  -0.000107  -0.000722  -0.054153   0.051696
      1       0.000148   0.000094   0.000111   0.000078   0.018174  -0.035484
      2      -0.000033   0.000101   0.000087   0.001166   0.057072   0.027564
      3       0.000172   0.000040  -0.000039  -0.000032  -0.000932   0.001538
      4      -0.000707  -0.000037  -0.000074   0.000111   0.000346  -0.000995
      5       0.000562  -0.000025  -0.000008  -0.000146   0.002126   0.001677
      6      -0.000180   0.000007   0.000033   0.000110  -0.000029  -0.000071
      7       0.000172   0.000012   0.000010  -0.000035   0.000163   0.000258
      8      -0.000302   0.000004   0.000006   0.000085  -0.000294  -0.000374
      9       0.000929   0.000009   0.000019  -0.000033   0.000010  -0.000223
     10       0.001556   0.000013   0.000043  -0.000045  -0.000074  -0.000029
     11       0.001930   0.000025  -0.000067  -0.000008  -0.000341  -0.000264
     12      -0.026081   0.000097   0.000013   0.000059  -0.000008   0.000115
     13      -0.015392   0.000056  -0.000036   0.000017   0.000025   0.000250
     14       0.071114  -0.000149  -0.000065   0.000006  -0.000121  -0.000908
     15       0.000824   0.000120   0.000200  -0.000673  -0.000244  -0.000026
     16      -0.000548  -0.000057  -0.000189  -0.000294   0.000149   0.001264
     17      -0.002123   0.000101   0.000126   0.001012  -0.001537  -0.014640
     18      -0.001971  -0.000003   0.000252  -0.000038  -0.000014   0.000014
     19      -0.001052   0.000437   0.001786  -0.000134   0.000021   0.000013
     20       0.002355  -0.001144  -0.000718   0.000060   0.000023  -0.000024
     21       0.000171  -0.000156  -0.000325  -0.000006   0.000007   0.000004
     22       0.000295  -0.000049  -0.000127   0.000050   0.000005  -0.000007
     23      -0.000179   0.000164   0.000086  -0.000017  -0.000007   0.000002
     24       0.000613   0.001075   0.002719   0.000606  -0.000086  -0.000042
     25       0.000283  -0.001835  -0.003513  -0.000586  -0.000063  -0.000025
     26      -0.000420   0.000003   0.001544   0.000113   0.000000   0.000029
     27       0.000072  -0.008298   0.018511   0.045929  -0.000774  -0.000019
     28      -0.000114  -0.055388  -0.032828   0.051574  -0.000697  -0.000160
     29      -0.000201  -0.064445   0.048778  -0.034922   0.000632   0.000037
     30      -0.000120   0.001075   0.000794   0.009962   0.558586   0.124627
     31      -0.000097  -0.000177  -0.000179  -0.002392  -0.133952  -0.042789
     32       0.000296  -0.001376  -0.001228  -0.013838  -0.794889  -0.131375
     33      -0.000088   0.000823   0.000711  -0.001138   0.122905  -0.764363
     34      -0.000279  -0.000614  -0.000562   0.000485  -0.096246   0.528775
     35      -0.000035   0.000305   0.000225   0.000215   0.072536  -0.234485
     36      -0.000385  -0.000131  -0.000181  -0.000099  -0.025507   0.008311
     37      -0.001026  -0.000093  -0.000306   0.001023   0.007275  -0.056414
     38       0.000228   0.000103   0.000168  -0.000035   0.024278   0.026069
     39      -0.002305   0.000174  -0.000005   0.000071   0.001207   0.002182
     40      -0.000900  -0.000066  -0.000159  -0.000157   0.000991   0.001686
     41       0.013965  -0.000095   0.000490   0.000205   0.003055   0.002559
     42       0.325472  -0.001245  -0.000185  -0.000134  -0.000378  -0.002088
     43       0.177072  -0.000504  -0.000210   0.000126  -0.000268  -0.000974
     44      -0.924554   0.002535   0.000969   0.000151   0.000167   0.005523
     45       0.008708   0.000104   0.000868   0.000592   0.002153   0.020457
     46       0.008486   0.000273   0.001130   0.001023   0.002948   0.026779
     47       0.008832   0.000206   0.001399   0.001834   0.002810   0.024628
     48      -0.014760   0.000744   0.001455   0.006700  -0.007966  -0.077773
     49      -0.007653   0.000265   0.000705   0.002861  -0.003307  -0.032859
     50       0.032201  -0.001458  -0.003130  -0.014605   0.016235   0.159125
     51      -0.010499  -0.002209  -0.004450   0.000389   0.008806   0.057376
     52       0.001503   0.000470   0.000785  -0.000084  -0.001848  -0.011289
     53      -0.002304  -0.000021  -0.000028   0.000459  -0.000383  -0.005372
     54      -0.006180   0.003679   0.009076   0.023477   0.000478   0.000557
     55      -0.001097   0.002780   0.005534   0.016706   0.000558   0.000145
     56       0.001947  -0.000028  -0.004204  -0.012049  -0.000104  -0.000389
     57       0.000294  -0.010533   0.000613   0.016809  -0.000253  -0.000085
     58       0.002635   0.800687   0.336912   0.003200  -0.002125   0.001408
     59       0.001629   0.442027   0.230868  -0.029761  -0.000697   0.000834
     60      -0.000308  -0.008284  -0.027332  -0.625788   0.010456   0.000533
     61      -0.000855  -0.028799  -0.045879  -0.644808   0.010873   0.000606
     62       0.000456  -0.031638   0.045108   0.426410  -0.007141  -0.000425
     63       0.000398   0.100828  -0.239148   0.029037  -0.000293  -0.000318
     64      -0.000259  -0.094184   0.124443   0.018659  -0.000355   0.000073
     65      -0.000070   0.367597  -0.866965   0.029609   0.000210  -0.000859
                 60         61         62         63         64         65    
      0       0.009262  -0.001256  -0.000257   0.020345   0.000049   0.000040
      1      -0.006290   0.000849  -0.000480   0.069343   0.000113  -0.000133
      2       0.006431  -0.001134   0.000113  -0.028819   0.000420   0.000449
      3       0.000301  -0.000131   0.000041   0.000613  -0.000088   0.000712
      4      -0.000180   0.000040   0.000253   0.002282   0.001845  -0.000776
      5       0.000424   0.000035  -0.000224  -0.001044  -0.002236   0.002751
      6      -0.000023   0.000014   0.000023   0.000042   0.000907  -0.000320
      7       0.000071  -0.000018  -0.000066  -0.000223  -0.000662   0.000586
      8      -0.000129  -0.000008   0.000121   0.000313   0.001150  -0.001342
      9      -0.000050   0.000298   0.000116   0.000025  -0.000371   0.012417
     10       0.000271  -0.000100  -0.000218  -0.000319  -0.000634  -0.024958
     11      -0.000311   0.000098   0.000406   0.000384  -0.000185   0.064738
     12      -0.000873  -0.002539  -0.000725  -0.000000  -0.000091  -0.000213
     13      -0.001334   0.000127  -0.001176  -0.000007  -0.000055  -0.000523
     14       0.004507   0.001273  -0.001335  -0.000144   0.000442   0.001512
     15      -0.012496  -0.078904  -0.036677  -0.000305  -0.000038   0.000206
     16      -0.005129   0.012741  -0.046719  -0.000286  -0.000146   0.000034
     17       0.075415   0.008030  -0.035602  -0.000585   0.000097   0.000087
     18      -0.000326   0.000320  -0.000119  -0.000029  -0.002370  -0.000055
     19      -0.000223  -0.000117  -0.000304   0.000047  -0.002412  -0.000221
     20       0.000199  -0.000007   0.000101  -0.000016   0.001625   0.000047
     21       0.000083   0.000088   0.000106  -0.000002   0.001362  -0.000040
     22       0.000180   0.000040   0.000179  -0.000015   0.001456   0.000030
     23      -0.000079  -0.000017  -0.000062   0.000012  -0.001058  -0.000003
     24       0.000151  -0.000209   0.000078   0.000107  -0.053853  -0.000447
     25       0.000099   0.000007   0.000069   0.000054  -0.039194  -0.000254
     26      -0.000107   0.000016  -0.000016  -0.000058   0.026331   0.000133
     27      -0.000798  -0.000054  -0.000324   0.000059  -0.001559   0.000014
     28      -0.000612  -0.000360  -0.000131   0.000085  -0.001075   0.000003
     29       0.000497   0.000150   0.000080  -0.000047   0.000757   0.000028
     30       0.035971  -0.007286  -0.000574   0.002534  -0.000145   0.001394
     31      -0.011144   0.002066   0.000065   0.030792   0.000657  -0.000049
     32      -0.042085   0.008807   0.000849  -0.007095   0.001689  -0.002978
     33      -0.148920   0.022506   0.001390   0.044293  -0.000012  -0.001897
     34       0.102761  -0.015425  -0.001055   0.003729  -0.000183   0.001039
     35      -0.044963   0.006728   0.000549  -0.002996  -0.000443  -0.001410
     36      -0.000267   0.000272   0.002152  -0.296546  -0.000758   0.000948
     37      -0.015262   0.002867   0.006583  -0.880109  -0.001757   0.002336
     38       0.007465  -0.001456  -0.002707   0.358227  -0.000072  -0.000561
     39      -0.000241  -0.000934  -0.000320  -0.000839   0.001377  -0.175234
     40      -0.003512   0.002012   0.000721   0.000105  -0.003416   0.350772
     41       0.002420  -0.000897  -0.001892  -0.002532   0.007232  -0.917095
     42       0.011116   0.004842  -0.002055  -0.000363   0.002963   0.003238
     43       0.004339   0.002365  -0.001790  -0.000101   0.002096   0.000104
     44      -0.031315  -0.014040   0.006391   0.001227  -0.005237  -0.009681
     45      -0.105036  -0.034842   0.424301   0.003619   0.000403  -0.001250
     46      -0.129683   0.005626   0.564002   0.004841   0.000315  -0.002009
     47      -0.116726   0.007454   0.664511   0.005535   0.000481  -0.001665
     48       0.402235   0.028623   0.074217  -0.001413   0.001147   0.000264
     49       0.172616   0.030630   0.020589  -0.000781   0.000632   0.001826
     50      -0.835484  -0.136504  -0.214791   0.002177  -0.001925  -0.001641
     51      -0.146018   0.965508  -0.052788   0.001643  -0.002433  -0.001935
     52       0.028552  -0.193415  -0.011320  -0.000625   0.000991   0.001072
     53       0.032310   0.032073  -0.019021  -0.000359  -0.000188  -0.000342
     54      -0.002507   0.001304  -0.001243  -0.001130   0.740586   0.005553
     55      -0.001391   0.001248  -0.000665  -0.000848   0.554335   0.004624
     56       0.001268  -0.000737   0.000345   0.000787  -0.371388  -0.002520
     57      -0.000241  -0.000104  -0.000067   0.000098  -0.000558  -0.000066
     58      -0.002391   0.002941  -0.001494  -0.000255  -0.007484   0.000111
     59      -0.001015   0.001897  -0.000847  -0.000260  -0.003352   0.000116
     60       0.010075   0.001976   0.003416  -0.000905   0.021501   0.000156
     61       0.010576   0.001536   0.003573  -0.000850   0.017005  -0.000063
     62      -0.006926  -0.001148  -0.002435   0.000534  -0.012028   0.000040
     63       0.000234  -0.000927   0.000358   0.000115   0.002209  -0.000176
     64      -0.000534   0.000246  -0.000332   0.000013  -0.001726   0.000081
     65       0.001874  -0.002829   0.001997   0.000346   0.007262  -0.000415


The first frequency considered to be a vibration is 6
The total number of vibrations considered is 60


--------------------------
THERMOCHEMISTRY AT 298.15K
--------------------------

Temperature         ...   298.15 K
Pressure            ...     1.00 atm
Total Mass          ...   144.17 AMU
Quasi RRHO          ...     True
Cut-Off Frequency   ...     1.00 cm^-1

Throughout the following assumptions are being made:
  (1) The electronic state is orbitally nondegenerate
  (2) There are no thermally accessible electronically excited states
  (3) Hindered rotations indicated by low frequency modes are not
      treated as such but are treated as vibrations and this may
      cause some error
  (4) All equations used are the standard statistical mechanics
      equations for an ideal gas
  (5) All vibrations are strictly harmonic

freq.      50.76  E(vib)   ...       0.52 
freq.      69.05  E(vib)   ...       0.50 
freq.      85.40  E(vib)   ...       0.48 
freq.      97.11  E(vib)   ...       0.46 
freq.     126.71  E(vib)   ...       0.43 
freq.     151.32  E(vib)   ...       0.40 
freq.     166.14  E(vib)   ...       0.39 
freq.     189.68  E(vib)   ...       0.36 
freq.     207.44  E(vib)   ...       0.34 
freq.     277.62  E(vib)   ...       0.28 
freq.     306.76  E(vib)   ...       0.26 
freq.     326.10  E(vib)   ...       0.24 
freq.     412.14  E(vib)   ...       0.19 
freq.     471.44  E(vib)   ...       0.15 
freq.     487.13  E(vib)   ...       0.15 
freq.     578.68  E(vib)   ...       0.11 
freq.     588.55  E(vib)   ...       0.10 
freq.     644.80  E(vib)   ...       0.09 
freq.     677.45  E(vib)   ...       0.08 
freq.     721.82  E(vib)   ...       0.07 
freq.     852.95  E(vib)   ...       0.04 
freq.     917.29  E(vib)   ...       0.03 
freq.     978.87  E(vib)   ...       0.03 
freq.    1001.40  E(vib)   ...       0.02 
freq.    1012.55  E(vib)   ...       0.02 
freq.    1039.03  E(vib)   ...       0.02 
freq.    1056.06  E(vib)   ...       0.02 
freq.    1099.88  E(vib)   ...       0.02 
freq.    1121.12  E(vib)   ...       0.01 
freq.    1140.66  E(vib)   ...       0.01 
freq.    1157.53  E(vib)   ...       0.01 
freq.    1204.22  E(vib)   ...       0.01 
freq.    1214.84  E(vib)   ...       0.01 
freq.    1275.68  E(vib)   ...       0.01 
freq.    1289.63  E(vib)   ...       0.01 
freq.    1367.83  E(vib)   ...       0.01 
freq.    1389.12  E(vib)   ...       0.00 
freq.    1399.23  E(vib)   ...       0.00 
freq.    1419.33  E(vib)   ...       0.00 
freq.    1432.26  E(vib)   ...       0.00 
freq.    1439.26  E(vib)   ...       0.00 
freq.    1455.52  E(vib)   ...       0.00 
freq.    1456.01  E(vib)   ...       0.00 
freq.    1467.40  E(vib)   ...       0.00 
freq.    1473.41  E(vib)   ...       0.00 
freq.    1486.53  E(vib)   ...       0.00 
freq.    1642.19  E(vib)   ...       0.00 
freq.    1678.17  E(vib)   ...       0.00 
freq.    2919.46  E(vib)   ...       0.00 
freq.    2991.10  E(vib)   ...       0.00 
freq.    3008.84  E(vib)   ...       0.00 
freq.    3033.49  E(vib)   ...       0.00 
freq.    3035.29  E(vib)   ...       0.00 
freq.    3042.36  E(vib)   ...       0.00 
freq.    3043.29  E(vib)   ...       0.00 
freq.    3050.67  E(vib)   ...       0.00 
freq.    3062.14  E(vib)   ...       0.00 
freq.    3067.94  E(vib)   ...       0.00 
freq.    3317.96  E(vib)   ...       0.00 
freq.    3440.81  E(vib)   ...       0.00 

------------
INNER ENERGY
------------

The inner energy is: U= E(el) + E(ZPE) + E(vib) + E(rot) + E(trans)
    E(el)   - is the total energy from the electronic structure calculation
              = E(kin-el) + E(nuc-el) + E(el-el) + E(nuc-nuc)
    E(ZPE)  - the the zero temperature vibrational energy from the frequency calculation
    E(vib)  - the the finite temperature correction to E(ZPE) due to population
              of excited vibrational states
    E(rot)  - is the rotational thermal energy
    E(trans)- is the translational thermal energy

Summary of contributions to the inner energy U:
Electronic energy                ...    -32.99136439 Eh
Zero point energy                ...      0.18024274 Eh     113.10 kcal/mol
Thermal vibrational correction   ...      0.00943854 Eh       5.92 kcal/mol
Thermal rotational correction    ...      0.00141627 Eh       0.89 kcal/mol
Thermal translational correction ...      0.00141627 Eh       0.89 kcal/mol
-----------------------------------------------------------------------
Total thermal energy                    -32.79885057 Eh


Summary of corrections to the electronic energy:
(perhaps to be used in another calculation)
Total thermal correction                  0.01227108 Eh       7.70 kcal/mol
Non-thermal (ZPE) correction              0.18024274 Eh     113.10 kcal/mol
-----------------------------------------------------------------------
Total correction                          0.19251382 Eh     120.80 kcal/mol


--------
ENTHALPY
--------

The enthalpy is H = U + kB*T
                kB is Boltzmann's constant
Total thermal energy              ...    -32.79885057 Eh 
Thermal Enthalpy correction       ...      0.00094421 Eh       0.59 kcal/mol
-----------------------------------------------------------------------
Total Enthalpy                    ...    -32.79790636 Eh


WARNING (ORCA/SYM): The number of Z matrix atoms does not agree with
the number of centers in the basis set. The point group will therefore
be determined without considering basis set information.


Note: Only C1 symmetry has been detected, increase convergence thresholds 
      if your molecule has a higher symmetry. Symmetry factor of 1.0 is   
      used for the rotational entropy correction. 
 

Note: Rotational entropy computed according to Herzberg 
Infrared and Raman Spectra, Chapter V,1, Van Nostrand Reinhold, 1945 
Point Group:  C1, Symmetry Number:   1  
Rotational constants in cm-1:     0.056891     0.033747     0.024169 

Vibrational entropy computed according to the QRRHO of S. Grimme
Chem.Eur.J. 2012 18 9955 using a reference frequency of 100.0 cm-1


-------
ENTROPY
-------

The entropy contributions are T*S = T*(S(el)+S(vib)+S(rot)+S(trans))
     S(el)   - electronic entropy
     S(vib)  - vibrational entropy
     S(rot)  - rotational entropy
     S(trans)- translational entropy
The entropies will be listed as multiplied by the temperature to get
units of energy

Electronic entropy                ...      0.00000000 Eh      0.00 kcal/mol
Vibrational entropy               ...      0.01688483 Eh     10.60 kcal/mol
Rotational entropy                ...      0.01422140 Eh      8.92 kcal/mol
Translational entropy             ...      0.01938939 Eh     12.17 kcal/mol
-----------------------------------------------------------------------
Final entropy term                ...      0.05049562 Eh     31.69 kcal/mol

In case the symmetry of your molecule has not been determined correctly
or in case you have a reason to use a different symmetry number we print 
out the resulting rotational entropy values for sn=1,12:

 non-linear molecules -----------------------------------
|  sn= 1 | S(rot)=       0.01422140 Eh      8.92 kcal/mol|
|  sn= 2 | S(rot)=       0.01356694 Eh      8.51 kcal/mol|
|  sn= 3 | S(rot)=       0.01318411 Eh      8.27 kcal/mol|
|  sn= 4 | S(rot)=       0.01291249 Eh      8.10 kcal/mol|
|  sn= 5 | S(rot)=       0.01270180 Eh      7.97 kcal/mol|
|  sn= 6 | S(rot)=       0.01252965 Eh      7.86 kcal/mol|
|  sn= 7 | S(rot)=       0.01238411 Eh      7.77 kcal/mol|
|  sn= 8 | S(rot)=       0.01225803 Eh      7.69 kcal/mol|
|  sn= 9 | S(rot)=       0.01214682 Eh      7.62 kcal/mol|
|  sn=10 | S(rot)=       0.01204734 Eh      7.56 kcal/mol|
|  sn=11 | S(rot)=       0.01195735 Eh      7.50 kcal/mol|
|  sn=12 | S(rot)=       0.01187520 Eh      7.45 kcal/mol|
 linear molecules ---------------------------------------
|  Dinfh | S(rot)=       0.00884068 Eh      5.55 kcal/mol|
|  Cinfv | S(rot)=       0.00949514 Eh      5.96 kcal/mol|
 --------------------------------------------------------


-------------------
GIBBS FREE ENERGY
-------------------

The Gibbs free energy is G = H - T*S

Total enthalpy                    ...    -32.79790636 Eh 
Total entropy correction          ...     -0.05049562 Eh    -31.69 kcal/mol
-----------------------------------------------------------------------
Final Gibbs free energy         ...    -32.84840198 Eh

For completeness - the Gibbs free energy minus the electronic energy
G-E(el)                           ...      0.14296241 Eh     89.71 kcal/mol


--------------------------------
SUGGESTED CITATIONS FOR THIS RUN
--------------------------------

Below you find a list of papers that are relevant to this ORCA run
We neither can nor want to force you to cite these papers, but we appreciate if you do
You receive ORCA, which is the product of decades of hard work by many enthusiastic individuals, for free
The only thing we kindly ask in return is that you cite our papers,
We deeply appreciate it, if you show your appreciation for ORCA by not just citing the generic ORCA reference.

Please note that relegating all ORCA citations to the supporting information does *not* help us.
SI sections are not indexed - citations you put there will not count into any citation statistics
But we need these citations in order to attract the funding resources that allow us to do what we are doing

Therefore, if you are a happy ORCA user, please consider citing a few of the papers listed below in the main body of your paper

In addition to the list printed below, the program has created the file o01-xtb-opt-freq.bibtex that contains the list in bibtex format
You can import this file easily into all common literature databanks and citation aid programs


List of essential papers. We consider these as the minimum necessary citations

  1. Bannwarth, C.; Ehlert, S.; Grimme, S.
     GFN2-xTB—An Accurate and Broadly Parametrized Self-Consistent Tight-Binding Quantum Chemical Method with Multipole Electrostatics and Density-Dependent Dispersion Contributions
     J. Chem. Theory Comput. 2019 15(3), 1652-1671
     doi.org/10.1021/acs.jctc.8b01176
  2. Neese, F.
     Software update: the ORCA program system, version 6.0
     WIRES Comput. Molec. Sci. 2025 15(1), e70019
     doi.org/10.1002/wcms.7019

List of papers to cite with high priority. The work reported in these papers was absolutely
necessary for this run to complete.
Our perspective: the developers of density functionals and basis sets usually get cited in chemistry papers
Good! But without the algorithms to do something with them, the functionals or basis sets would not do anything.
Hence, in our opinion, the algorithm design and method developments papers are equally worthy of getting cited

  1. Bykov, D.; Petrenko, T.; Izsak, R.; Kossmann, S.; Becker, U.; Valeev, E.; Neese, F.
     Efficient implementation of the analytic second derivatives of Hartree-Fock and hybrid DFT energies: a detailed analysis of different approximations
     Molec. Phys. 2015 113 , 1961-1977
     doi.org/10.1080/00268976.2015.1025114
  2. Bannwarth, C.; Caldeweyher, E.; Ehlert, S.; Hansen, A.; Pracht, P.; Seibert, J.; Spicher, S.; Grimme, S.
     Extended tight-binding quantum chemistry methods
     WIRES Comput. Molec. Sci. 2020 11(2), e1493
     doi.org/10.1002/wcms.1493

List of suggested additional citations. These are papers that are important in the 'surrounding' of 
of this run, or papers that preceded the highly important papers. If you like your results we are grateful for a citation.

  1. Neese, F.
     The ORCA program system
     WIRES Comput. Molec. Sci. 2012 2(1), 73-78
     doi.org/10.1002/wcms.81
  2. Neese, F.
     Software update: the ORCA program system, version 4.0
     WIRES Comput. Molec. Sci. 2018 8(1), 1-6
     doi.org/10.1002/wcms.1327
  3. Neese, F.; Wennmohs, F.; Becker, U.; Riplinger, C.
     The ORCA quantum chemistry program package
     J. Chem. Phys. 2020 152(22), 224108
     doi.org/10.1063/5.0004608
  4. Neese, F.
     Software update: The ORCA program system—Version 5.0
     WIRES Comput. Molec. Sci. 2022 12(1), e1606
     doi.org/10.1002/wcms.1606

List of optional additional citations

  1. Neese, F.
     Approximate second-order SCF convergence for spin unrestricted wavefunctions
     Chem. Phys. Lett. 2000 325(1-3), 93-98
     doi.org/10.1016/s0009-2614(00)00662-x

Timings for individual modules:

Sum of individual times          ...        4.038 sec (=   0.067 min)
Geometry relaxation              ...        0.743 sec (=   0.012 min)  18.4 %
XTB module                       ...        3.294 sec (=   0.055 min)  81.6 %
                             ****ORCA TERMINATED NORMALLY****
TOTAL RUN TIME: 0 days 0 hours 0 minutes 9 seconds 923 msec
