22
Coordinates from ORCA-job o01-xtb-opt-freq E -32.991364391440
  C           2.24263790184397      1.74977130599505      1.16361481875503
  C           1.44453703279036      1.03599250810483      0.10515206928878
  O           1.17787331867533      1.53616456396637     -0.98847946327098
  N           1.04257317454581     -0.19886942933091      0.43851644449661
  C           0.30379354728559     -1.06958118518655     -0.46211192613294
  C           0.53065508413801     -2.52441644079206     -0.08501599301656
  C          -1.19634932815755     -0.70983289348952     -0.41754116116555
  O          -2.02884574893037     -1.42113006788388      0.13537252063002
  N          -1.48063187687450      0.44005019719692     -1.03105339618436
  C          -2.80798835372295      1.01043032561923     -1.07331496919971
  H           1.62591364662570      1.90572114742894      2.04495228851474
  H           3.11019386037779      1.15793673875395      1.44160499707244
  H           2.56741977705573      2.71180124728308      0.77894413411342
  H           1.21989349701006     -0.55030505949731      1.36751321354164
  H           0.66720279709111     -0.86580523796825     -1.47670166170538
  H           0.05407051780252     -3.16810869747207     -0.81827259101556
  H           0.07838954689664     -2.72889643342048      0.88245213273644
  H           1.59294995666985     -2.74682930362039     -0.05205356135458
  H          -0.71275116774754      0.99602785442677     -1.39561828175924
  H          -2.83269332377013      1.95614316697231     -0.53196884961407
  H          -3.49159749169404      0.30421848118365     -0.60499763000820
  H          -3.10724236791137      1.17951721173033     -2.10673113472197
