22
Coordinates from ORCA-job o02-r2scan-opt-freq E -495.775840530931
  C           2.26322255032875      1.80219969104962      1.11999278844977
  C           1.48605449749957      1.03933171909421      0.07720119531681
  O           1.27260575918794      1.51427343261662     -1.04919489154344
  N           1.04732753544083     -0.18645576880532      0.43706907093584
  C           0.30753570430299     -1.07229101281892     -0.46500540729074
  C           0.57384048206748     -2.52364337399262     -0.10707391332989
  C          -1.19868696065105     -0.73206984114376     -0.40234774864473
  O          -2.01709723032081     -1.44689722702039      0.18483563943746
  N          -1.53071229940594      0.41034518937356     -1.02854462868746
  C          -2.88571833092955      0.94602173035147     -0.99260832998710
  H           1.77894058624833      2.77017323862087      1.27928043025228
  H           2.34181647015579      1.27430552753912      2.07307327585025
  H           3.26812810376873      1.99532009314927      0.73150984148669
  H           1.20328412816587     -0.50496278220978      1.38319983212878
  H           0.66148622476831     -0.86114089538338     -1.48180038281204
  H           0.01989713523263     -3.18228446602866     -0.78078060733376
  H           0.25275548455604     -2.73827038572555      0.91674790191411
  H           1.64171322245225     -2.74085071140575     -0.20072668316235
  H          -0.77976879425406      0.97251871066026     -1.41381247945732
  H          -3.19145528255225      1.19075354192727      0.03181679511777
  H          -3.59812858851079      0.22073117405538     -1.39916295264979
  H          -2.91703639755102      1.85289241609649     -1.59940674599111
