
     Program PWSCF v.7.5 starts on 25Jul2026 at 15:49:24 

     This program is part of the open-source Quantum ESPRESSO suite
     for quantum simulation of materials; please cite
         "P. Giannozzi et al., J. Phys.:Condens. Matter 21 395502 (2009);
         "P. Giannozzi et al., J. Phys.:Condens. Matter 29 465901 (2017);
         "P. Giannozzi et al., J. Chem. Phys. 152 154105 (2020);
          URL http://www.quantum-espresso.org", 
     in publications or presentations arising from this work. More details at
     http://www.quantum-espresso.org/quote

     Parallel version (MPI & OpenMP), running on       6 processor cores
     Number of MPI processes:                 6
     Threads/MPI process:                     1

     MPI processes distributed on     1 nodes
     12539 MiB available memory on the printing compute node when the environment starts

     Reading input from si.vcrelax.in

     Current dimensions of program PWSCF are:
     Max number of different atomic species (ntypx) = 10
     Max number of k-points (npk) =  40000
     Max angular momentum in pseudopotentials (lmaxx) =  4
     file Si.pbe-n-kjpaw_psl.1.0.0.UPF: wavefunction(s)  3S 3P renormalized

     K-points division:     npool     =       6
     Subspace diagonalization in iterative solution of the eigenvalue problem:
     a serial algorithm will be used


     G-vector sticks info
     --------------------
     sticks:   dense  smooth     PW     G-vecs:    dense   smooth      PW
     Sum        1099     559    169                24045     8609    1471

     Using Slab Decomposition



     bravais-lattice index     =            2
     lattice parameter (alat)  =      10.0000  a.u.
     unit-cell volume          =     250.0000 (a.u.)^3
     number of atoms/cell      =            2
     number of atomic types    =            1
     number of electrons       =         8.00
     number of Kohn-Sham states=            4
     kinetic-energy cutoff     =      40.0000  Ry
     charge density cutoff     =     320.0000  Ry
     scf convergence threshold =      1.0E-10
     mixing beta               =       0.7000
     number of iterations used =            8  plain     mixing
     energy convergence thresh.=      1.0E-05
     force convergence thresh. =      1.0E-04
     press convergence thresh. =      1.0E-01
     Exchange-correlation= SLA  PW   PBX  PBC
                           (   1   4   3   4   0   0   0)
     nstep                     =          100


     celldm(1)=  10.000000  celldm(2)=   0.000000  celldm(3)=   0.000000
     celldm(4)=   0.000000  celldm(5)=   0.000000  celldm(6)=   0.000000

     crystal axes: (cart. coord. in units of alat)
               a(1) = (  -0.500000   0.000000   0.500000 )  
               a(2) = (   0.000000   0.500000   0.500000 )  
               a(3) = (  -0.500000   0.500000   0.000000 )  

     reciprocal axes: (cart. coord. in units 2 pi/alat)
               b(1) = ( -1.000000 -1.000000  1.000000 )  
               b(2) = (  1.000000  1.000000  1.000000 )  
               b(3) = ( -1.000000  1.000000 -1.000000 )  


     PseudoPot. # 1 for Si read from file:
     ./pseudo/Si.pbe-n-kjpaw_psl.1.0.0.UPF
     MD5 check sum: c39c59da582df4a0d9f10159256ea34e
     Pseudo is Projector augmented-wave + core cor, Zval =  4.0
     Generated using &quot;atomic&quot; code by A. Dal Corso  v.6.3
     Shape of augmentation charge: PSQ
     Using radial grid of 1141 points,  6 beta functions with: 
                l(1) =   0
                l(2) =   0
                l(3) =   1
                l(4) =   1
                l(5) =   2
                l(6) =   2
     Q(r) pseudized with 0 coefficients 


     atomic species   valence    mass     pseudopotential
     Si                4.00    28.08550     Si( 1.00)

     48 Sym. Ops., with inversion, found (24 have fractional translation)



   Cartesian axes

     site n.     atom                  positions (alat units)
         1        Si     tau(   1) = (   0.0000000   0.0000000   0.0000000  )
         2        Si     tau(   2) = (   0.2500000   0.2500000   0.2500000  )

     number of k points=    29
                       cart. coord. in units 2pi/alat
        k(    1) = (   0.0000000   0.0000000   0.0000000), wk =   0.0039062
        k(    2) = (  -0.1250000   0.1250000  -0.1250000), wk =   0.0312500
        k(    3) = (  -0.2500000   0.2500000  -0.2500000), wk =   0.0312500
        k(    4) = (  -0.3750000   0.3750000  -0.3750000), wk =   0.0312500
        k(    5) = (   0.5000000  -0.5000000   0.5000000), wk =   0.0156250
        k(    6) = (   0.0000000   0.2500000   0.0000000), wk =   0.0234375
        k(    7) = (  -0.1250000   0.3750000  -0.1250000), wk =   0.0937500
        k(    8) = (  -0.2500000   0.5000000  -0.2500000), wk =   0.0937500
        k(    9) = (   0.6250000  -0.3750000   0.6250000), wk =   0.0937500
        k(   10) = (   0.5000000  -0.2500000   0.5000000), wk =   0.0937500
        k(   11) = (   0.3750000  -0.1250000   0.3750000), wk =   0.0937500
        k(   12) = (   0.2500000   0.0000000   0.2500000), wk =   0.0468750
        k(   13) = (   0.0000000   0.5000000   0.0000000), wk =   0.0234375
        k(   14) = (  -0.1250000   0.6250000  -0.1250000), wk =   0.0937500
        k(   15) = (   0.7500000  -0.2500000   0.7500000), wk =   0.0937500
        k(   16) = (   0.6250000  -0.1250000   0.6250000), wk =   0.0937500
        k(   17) = (   0.5000000   0.0000000   0.5000000), wk =   0.0468750
        k(   18) = (   0.0000000   0.7500000   0.0000000), wk =   0.0234375
        k(   19) = (   0.8750000  -0.1250000   0.8750000), wk =   0.0937500
        k(   20) = (   0.7500000   0.0000000   0.7500000), wk =   0.0468750
        k(   21) = (   0.0000000  -1.0000000   0.0000000), wk =   0.0117188
        k(   22) = (  -0.2500000   0.5000000   0.0000000), wk =   0.0937500
        k(   23) = (   0.6250000  -0.3750000   0.8750000), wk =   0.1875000
        k(   24) = (   0.5000000  -0.2500000   0.7500000), wk =   0.0937500
        k(   25) = (   0.7500000  -0.2500000   1.0000000), wk =   0.0937500
        k(   26) = (   0.6250000  -0.1250000   0.8750000), wk =   0.1875000
        k(   27) = (   0.5000000   0.0000000   0.7500000), wk =   0.0937500
        k(   28) = (  -0.2500000  -1.0000000   0.0000000), wk =   0.0468750
        k(   29) = (  -0.5000000  -1.0000000   0.0000000), wk =   0.0234375

     Dense  grid:    24045 G-vectors     FFT dimensions: (  48,  48,  48)

     Smooth grid:     8609 G-vectors     FFT dimensions: (  32,  32,  32)

     Estimated max dynamical RAM per process >      33.77 MB

     Estimated total dynamical RAM >     173.24 MB

     Initial potential from superposition of free atoms

     starting charge       7.9989, renormalised to       8.0000
     Starting wfcs are    8 randomized atomic wfcs
     Checking if some PAW data can be deallocated... 

     total cpu time spent up to now is        2.4 secs

     per-process dynamical memory:    28.0 Mb

     Self-consistent Calculation

     iteration #  1     ecut=    40.00 Ry     beta= 0.70
     Davidson diagonalization with overlap
     ethr =  1.00E-02,  avg # of iterations =  2.0

     Threshold (ethr) on eigenvalues was too large:
     Diagonalizing with lowered threshold

     Davidson diagonalization with overlap
     ethr =  7.08E-04,  avg # of iterations =  1.3

     total cpu time spent up to now is        2.9 secs

     total energy              =     -93.44087043 Ry
     estimated scf accuracy    <       0.06126810 Ry

     iteration #  2     ecut=    40.00 Ry     beta= 0.70
     Davidson diagonalization with overlap
     ethr =  7.66E-04,  avg # of iterations =  1.0

     total cpu time spent up to now is        3.2 secs

     total energy              =     -93.44337753 Ry
     estimated scf accuracy    <       0.00290723 Ry

     iteration #  3     ecut=    40.00 Ry     beta= 0.70
     Davidson diagonalization with overlap
     ethr =  3.63E-05,  avg # of iterations =  2.9

     total cpu time spent up to now is        3.5 secs

     total energy              =     -93.44436820 Ry
     estimated scf accuracy    <       0.00013995 Ry

     iteration #  4     ecut=    40.00 Ry     beta= 0.70
     Davidson diagonalization with overlap
     ethr =  1.75E-06,  avg # of iterations =  3.8

     total cpu time spent up to now is        3.8 secs

     total energy              =     -93.44443107 Ry
     estimated scf accuracy    <       0.00002112 Ry

     iteration #  5     ecut=    40.00 Ry     beta= 0.70
     Davidson diagonalization with overlap
     ethr =  2.64E-07,  avg # of iterations =  3.0

     total cpu time spent up to now is        4.1 secs

     total energy              =     -93.44443784 Ry
     estimated scf accuracy    <       0.00000038 Ry

     iteration #  6     ecut=    40.00 Ry     beta= 0.70
     Davidson diagonalization with overlap
     ethr =  4.76E-09,  avg # of iterations =  5.8

     total cpu time spent up to now is        4.7 secs

     total energy              =     -93.44443847 Ry
     estimated scf accuracy    <       0.00000004 Ry

     iteration #  7     ecut=    40.00 Ry     beta= 0.70
     Davidson diagonalization with overlap
     ethr =  4.47E-10,  avg # of iterations =  3.7

     total cpu time spent up to now is        5.1 secs

     total energy              =     -93.44443848 Ry
     estimated scf accuracy    <       0.00000002 Ry

     iteration #  8     ecut=    40.00 Ry     beta= 0.70
     Davidson diagonalization with overlap
     ethr =  2.46E-10,  avg # of iterations =  2.1

     total cpu time spent up to now is        5.5 secs

     total energy              =     -93.44443849 Ry
     estimated scf accuracy    <          2.1E-10 Ry

     iteration #  9     ecut=    40.00 Ry     beta= 0.70
     Davidson diagonalization with overlap
     ethr =  2.65E-12,  avg # of iterations =  5.2

     total cpu time spent up to now is        5.9 secs

     End of self-consistent calculation

          k = 0.0000 0.0000 0.0000 (  1067 PWs)   bands (ev):

    -5.4708   7.0480   7.0480   7.0480

          k =-0.1250 0.1250-0.1250 (  1064 PWs)   bands (ev):

    -5.2527   5.4106   6.7352   6.7352

          k =-0.2500 0.2500-0.2500 (  1074 PWs)   bands (ev):

    -4.6146   2.9604   6.2362   6.2362

          k =-0.3750 0.3750-0.3750 (  1065 PWs)   bands (ev):

    -3.6472   0.8062   5.8950   5.8950

          k = 0.5000-0.5000 0.5000 (  1068 PWs)   bands (ev):

    -2.9356  -0.3113   5.7793   5.7793

          k = 0.0000 0.2500 0.0000 (  1054 PWs)   bands (ev):

    -5.1793   5.7767   6.1660   6.1660

          k =-0.1250 0.3750-0.1250 (  1059 PWs)   bands (ev):

    -4.6779   3.7453   5.6201   5.7485

          k =-0.2500 0.5000-0.2500 (  1061 PWs)   bands (ev):

    -3.8003   1.5408   5.1258   5.3415

          k = 0.6250-0.3750 0.6250 (  1074 PWs)   bands (ev):

    -2.8510  -0.0492   4.6468   5.3765

          k = 0.5000-0.2500 0.5000 (  1068 PWs)   bands (ev):

    -3.1245   0.3583   4.4395   5.7010

          k = 0.3750-0.1250 0.3750 (  1067 PWs)   bands (ev):

    -4.1308   2.2486   4.5766   6.2316

          k = 0.2500 0.0000 0.2500 (  1055 PWs)   bands (ev):

    -4.8931   4.3215   5.2729   6.7471

          k = 0.0000 0.5000 0.0000 (  1062 PWs)   bands (ev):

    -4.3147   3.5356   5.0061   5.0061

          k =-0.1250 0.6250-0.1250 (  1058 PWs)   bands (ev):

    -3.5532   2.0088   4.1717   4.6695

          k = 0.7500-0.2500 0.7500 (  1076 PWs)   bands (ev):

    -2.5457   0.4359   3.2511   4.6778

          k = 0.6250-0.1250 0.6250 (  1075 PWs)   bands (ev):

    -2.3130   0.1435   2.7503   5.0236

          k = 0.5000 0.0000 0.5000 (  1065 PWs)   bands (ev):

    -3.2753   1.4106   2.9843   5.6289

          k = 0.0000 0.7500 0.0000 (  1058 PWs)   bands (ev):

    -2.9106   1.1782   4.2439   4.2439

          k = 0.8750-0.1250 0.8750 (  1067 PWs)   bands (ev):

    -1.9444   0.0234   3.3227   4.1644

          k = 0.7500 0.0000 0.7500 (  1069 PWs)   bands (ev):

    -1.4433  -0.4180   2.3642   4.4422

          k = 0.0000-1.0000 0.0000 (  1090 PWs)   bands (ev):

    -1.0368  -1.0368   3.9831   3.9831

          k =-0.2500 0.5000 0.0000 (  1063 PWs)   bands (ev):

    -4.0478   2.6747   4.1090   5.5219

          k = 0.6250-0.3750 0.8750 (  1069 PWs)   bands (ev):

    -3.0873   0.9974   3.4910   4.9652

          k = 0.5000-0.2500 0.7500 (  1072 PWs)   bands (ev):

    -2.3630  -0.0477   3.3734   4.7093

          k = 0.7500-0.2500 1.0000 (  1067 PWs)   bands (ev):

    -2.6916   0.9462   3.4097   4.0523

          k = 0.6250-0.1250 0.8750 (  1073 PWs)   bands (ev):

    -1.7340  -0.0977   2.6424   3.8338

          k = 0.5000 0.0000 0.7500 (  1075 PWs)   bands (ev):

    -2.1117   0.2864   2.4578   4.2458

          k =-0.2500-1.0000 0.0000 (  1070 PWs)   bands (ev):

    -0.9416  -0.9416   3.3422   3.3422

          k =-0.5000-1.0000 0.0000 (  1084 PWs)   bands (ev):

    -0.8345  -0.8345   2.8503   2.8503

     highest occupied level (ev):     7.0480

!    total energy              =     -93.44443849 Ry
     total all-electron energy =     -1160.136168 Ry
     estimated scf accuracy    <          3.5E-12 Ry

     The total energy is the sum of the following terms:
     one-electron contribution =       6.36733017 Ry
     hartree contribution      =       1.03328074 Ry
     xc contribution           =     -12.40655413 Ry
     ewald contribution        =     -17.23775374 Ry
     one-center paw contrib.   =     -71.20074152 Ry

     convergence has been achieved in   9 iterations

     Forces acting on atoms (cartesian axes, Ry/au):

     atom    1 type  1   force =    -0.00000000   -0.00000000   -0.00000000
     atom    2 type  1   force =     0.00000000    0.00000000    0.00000000

     Total force =     0.000000     Total SCF correction =     0.000000


     Computing stress (Cartesian axis) and pressure

          total   stress  (Ry/bohr**3)                   (kbar)     P=      108.71
   0.00073899   0.00000000   0.00000000          108.71        0.00        0.00
  -0.00000000   0.00073899  -0.00000000           -0.00      108.71       -0.00
   0.00000000  -0.00000000   0.00073899            0.00       -0.00      108.71


     BFGS Geometry Optimization
     Energy error            =      1.0E-02 Ry
     Gradient error          =      1.4E-33 Ry/Bohr
     Cell gradient error     =      1.1E+02 kbar

     number of scf cycles    =   1
     number of bfgs steps    =   0

     enthalpy           new  =     -93.4444384860 Ry

     new trust radius        =       0.0584225975 bohr
ibrav =      2
 celldm(1) =     10.18474847
Input lattice vectors:
    -0.50923742    -0.00000000     0.50923742
     0.00000000     0.50923742     0.50923742
    -0.50923742     0.50923742    -0.00000000
New lattice vectors in INITIAL alat:
    -0.50923742     0.00000000     0.50923742
     0.00000000     0.50923742     0.50923742
    -0.50923742     0.50923742     0.00000000
New lattice vectors in NEW alat (for information only):
    -0.50000000     0.00000000     0.50000000
     0.00000000     0.50000000     0.50000000
    -0.50000000     0.50000000     0.00000000
Discrepancy in bohr =     0.000000    0.000000    0.000000

Atomic positions rescaled with new alat:
Si              -0.0000000000       -0.0000000000       -0.0000000000
Si               0.2500000000        0.2500000000        0.2500000000
     new conv_thr            =            1.0E-10 Ry

     new unit-cell volume =    264.11370 a.u.^3 (    39.13761 Ang^3 )
     density =      2.38324 g/cm^3

CELL_PARAMETERS (alat= 10.00000000)
  -0.509237424   0.000000000   0.509237424
   0.000000000   0.509237424   0.509237424
  -0.509237424   0.509237424   0.000000000

ATOMIC_POSITIONS (alat)
Si              -0.0000000000       -0.0000000000       -0.0000000000
Si               0.2546187119        0.2546187119        0.2546187119



     Writing config-only to output data dir ./tmp/si_vc.save/ :
     XML data file
     NEW-OLD atomic charge density approx. for the potential
     New effective cutoffs (rho, wfc):  307.52   38.56

     total cpu time spent up to now is        6.7 secs

     per-process dynamical memory:    45.2 Mb

     Self-consistent Calculation

     iteration #  1     ecut=    40.00 Ry     beta= 0.70
     Davidson diagonalization with overlap
     ethr =  1.00E-06,  avg # of iterations =  7.7

     total cpu time spent up to now is        7.0 secs

     total energy              =     -93.45157682 Ry
     estimated scf accuracy    <       0.00008724 Ry

     iteration #  2     ecut=    40.00 Ry     beta= 0.70
     Davidson diagonalization with overlap
     ethr =  1.09E-06,  avg # of iterations =  1.2

     total cpu time spent up to now is        7.3 secs

     total energy              =     -93.45157565 Ry
     estimated scf accuracy    <       0.00000426 Ry

     iteration #  3     ecut=    40.00 Ry     beta= 0.70
     Davidson diagonalization with overlap
     ethr =  5.32E-08,  avg # of iterations =  3.0

     total cpu time spent up to now is        7.6 secs

     total energy              =     -93.45157832 Ry
     estimated scf accuracy    <       0.00000059 Ry

     iteration #  4     ecut=    40.00 Ry     beta= 0.70
     Davidson diagonalization with overlap
     ethr =  7.44E-09,  avg # of iterations =  2.6

     total cpu time spent up to now is        8.0 secs

     total energy              =     -93.45157828 Ry
     estimated scf accuracy    <       0.00000075 Ry

     iteration #  5     ecut=    40.00 Ry     beta= 0.70
     Davidson diagonalization with overlap
     ethr =  7.44E-09,  avg # of iterations =  1.5

     total cpu time spent up to now is        8.3 secs

     total energy              =     -93.45157832 Ry
     estimated scf accuracy    <          9.2E-09 Ry

     iteration #  6     ecut=    40.00 Ry     beta= 0.70
     Davidson diagonalization with overlap
     ethr =  1.15E-10,  avg # of iterations =  5.3

     total cpu time spent up to now is        8.6 secs

     total energy              =     -93.45157833 Ry
     estimated scf accuracy    <          6.5E-10 Ry

     iteration #  7     ecut=    40.00 Ry     beta= 0.70
     Davidson diagonalization with overlap
     ethr =  8.12E-12,  avg # of iterations =  2.9

     total cpu time spent up to now is        9.0 secs

     End of self-consistent calculation

          k = 0.0000 0.0000 0.0000 (  1067 PWs)   bands (ev):

    -5.6771   6.4454   6.4454   6.4454

          k =-0.1227 0.1227-0.1227 (  1064 PWs)   bands (ev):

    -5.4690   4.8368   6.1494   6.1494

          k =-0.2455 0.2455-0.2455 (  1074 PWs)   bands (ev):

    -4.8613   2.4727   5.6702   5.6702

          k =-0.3682 0.3682-0.3682 (  1065 PWs)   bands (ev):

    -3.9465   0.4136   5.3388   5.3388

          k = 0.4909-0.4909 0.4909 (  1068 PWs)   bands (ev):

    -3.2879  -0.6359   5.2257   5.2257

          k = 0.0000 0.2455 0.0000 (  1054 PWs)   bands (ev):

    -5.3989   5.1307   5.6168   5.6168

          k =-0.1227 0.3682-0.1227 (  1059 PWs)   bands (ev):

    -4.9208   3.1998   5.0949   5.1854

          k =-0.2455 0.4909-0.2455 (  1061 PWs)   bands (ev):

    -4.0880   1.0970   4.5848   4.8236

          k = 0.6137-0.3682 0.6137 (  1074 PWs)   bands (ev):

    -3.2017  -0.4028   4.1296   4.8510

          k = 0.4909-0.2455 0.4909 (  1068 PWs)   bands (ev):

    -3.4544  -0.0217   3.9406   5.1556

          k = 0.3682-0.1227 0.3682 (  1067 PWs)   bands (ev):

    -4.4012   1.7704   4.0876   5.6585

          k = 0.2455 0.0000 0.2455 (  1055 PWs)   bands (ev):

    -5.1261   3.7501   4.7744   6.1498

          k = 0.0000 0.4909 0.0000 (  1062 PWs)   bands (ev):

    -4.5739   2.9293   4.5112   4.5112

          k =-0.1227 0.6137-0.1227 (  1058 PWs)   bands (ev):

    -3.8492   1.4759   3.7148   4.1876

          k = 0.7364-0.2455 0.7364 (  1076 PWs)   bands (ev):

    -2.9000  -0.0033   2.8345   4.1921

          k = 0.6137-0.1227 0.6137 (  1075 PWs)   bands (ev):

    -2.6878  -0.2712   2.3638   4.5185

          k = 0.4909 0.0000 0.4909 (  1065 PWs)   bands (ev):

    -3.5900   0.9195   2.6028   5.0906

          k = 0.0000 0.7364 0.0000 (  1058 PWs)   bands (ev):

    -3.2351   0.6633   3.7812   3.7812

          k = 0.8591-0.1227 0.8591 (  1067 PWs)   bands (ev):

    -2.3181  -0.4420   2.9261   3.7041

          k = 0.7364 0.0000 0.7364 (  1069 PWs)   bands (ev):

    -1.8620  -0.8512   2.0339   3.9675

          k = 0.0000-0.9819 0.0000 (  1090 PWs)   bands (ev):

    -1.4497  -1.4497   3.5311   3.5311

          k =-0.2455 0.4909 0.0000 (  1063 PWs)   bands (ev):

    -4.3209   2.1318   3.6669   4.9887

          k = 0.6137-0.3682 0.8591 (  1069 PWs)   bands (ev):

    -3.4120   0.5440   3.0552   4.4716

          k = 0.4909-0.2455 0.7364 (  1072 PWs)   bands (ev):

    -2.7394  -0.4294   2.9293   4.2345

          k = 0.7364-0.2455 0.9819 (  1067 PWs)   bands (ev):

    -3.0307   0.4404   3.0034   3.6181

          k = 0.6137-0.1227 0.8591 (  1073 PWs)   bands (ev):

    -2.1325  -0.5492   2.2854   3.4122

          k = 0.4909-0.0000 0.7364 (  1075 PWs)   bands (ev):

    -2.4908  -0.1800   2.1135   3.7985

          k =-0.2455-0.9819 0.0000 (  1070 PWs)   bands (ev):

    -1.3669  -1.3669   2.9453   2.9453

          k =-0.4909-0.9819 0.0000 (  1084 PWs)   bands (ev):

    -1.2753  -1.2753   2.4937   2.4937

     highest occupied level (ev):     6.4454

!    total energy              =     -93.45157833 Ry
     total all-electron energy =     -1160.143308 Ry
     estimated scf accuracy    <          2.6E-11 Ry

     The total energy is the sum of the following terms:
     one-electron contribution =       5.92005788 Ry
     hartree contribution      =       1.08112409 Ry
     xc contribution           =     -12.33707447 Ry
     ewald contribution        =     -16.92506573 Ry
     one-center paw contrib.   =     -71.19062010 Ry

     convergence has been achieved in   7 iterations

     Forces acting on atoms (cartesian axes, Ry/au):

     atom    1 type  1   force =     0.00000000    0.00000000   -0.00000000
     atom    2 type  1   force =     0.00000000    0.00000000    0.00000000

     Total force =     0.000000     Total SCF correction =     0.000000


     Computing stress (Cartesian axis) and pressure

          total   stress  (Ry/bohr**3)                   (kbar)     P=       43.06
   0.00029275  -0.00000000  -0.00000000           43.06       -0.00       -0.00
  -0.00000000   0.00029275   0.00000000           -0.00       43.06        0.00
  -0.00000000   0.00000000   0.00029275           -0.00        0.00       43.06

     Energy error            =      7.1E-03 Ry
     Gradient error          =      4.8E-32 Ry/Bohr
     Cell gradient error     =      4.3E+01 kbar

     number of scf cycles    =   2
     number of bfgs steps    =   1

     enthalpy           old  =     -93.4444384860 Ry
     enthalpy           new  =     -93.4515783339 Ry

     CASE: enthalpy          _new < enthalpy          _old

     new trust radius        =       0.0411274316 bohr
ibrav =      2
 celldm(1) =     10.31361984
Input lattice vectors:
    -0.51568099     0.00000000     0.51568099
    -0.00000000     0.51568099     0.51568099
    -0.51568099     0.51568099     0.00000000
New lattice vectors in INITIAL alat:
    -0.51568099     0.00000000     0.51568099
     0.00000000     0.51568099     0.51568099
    -0.51568099     0.51568099     0.00000000
New lattice vectors in NEW alat (for information only):
    -0.50000000     0.00000000     0.50000000
     0.00000000     0.50000000     0.50000000
    -0.50000000     0.50000000     0.00000000
Discrepancy in bohr =     0.000000    0.000000    0.000000

Atomic positions rescaled with new alat:
Si              -0.0000000000       -0.0000000000       -0.0000000000
Si               0.2500000000        0.2500000000        0.2500000000
     new conv_thr            =            1.0E-12 Ry

     new unit-cell volume =    274.26688 a.u.^3 (    40.64216 Ang^3 )
     density =      2.29501 g/cm^3

CELL_PARAMETERS (alat= 10.00000000)
  -0.515680992   0.000000000   0.515680992
   0.000000000   0.515680992   0.515680992
  -0.515680992   0.515680992   0.000000000

ATOMIC_POSITIONS (alat)
Si              -0.0000000000       -0.0000000000       -0.0000000000
Si               0.2578404960        0.2578404960        0.2578404960



     Writing config-only to output data dir ./tmp/si_vc.save/ :
     XML data file
     NEW-OLD atomic charge density approx. for the potential
     New effective cutoffs (rho, wfc):  299.88   37.60

     total cpu time spent up to now is        9.8 secs

     per-process dynamical memory:    45.2 Mb

     Self-consistent Calculation

     iteration #  1     ecut=    40.00 Ry     beta= 0.70
     Davidson diagonalization with overlap
     ethr =  1.00E-06,  avg # of iterations =  7.0

     total cpu time spent up to now is       10.2 secs

     total energy              =     -93.45321608 Ry
     estimated scf accuracy    <       0.00004227 Ry

     iteration #  2     ecut=    40.00 Ry     beta= 0.70
     Davidson diagonalization with overlap
     ethr =  5.28E-07,  avg # of iterations =  1.7

     total cpu time spent up to now is       10.5 secs

     total energy              =     -93.45321649 Ry
     estimated scf accuracy    <       0.00000179 Ry

     iteration #  3     ecut=    40.00 Ry     beta= 0.70
     Davidson diagonalization with overlap
     ethr =  2.24E-08,  avg # of iterations =  3.4

     total cpu time spent up to now is       10.9 secs

     total energy              =     -93.45321787 Ry
     estimated scf accuracy    <       0.00000023 Ry

     iteration #  4     ecut=    40.00 Ry     beta= 0.70
     Davidson diagonalization with overlap
     ethr =  2.88E-09,  avg # of iterations =  2.9

     total cpu time spent up to now is       11.2 secs

     total energy              =     -93.45321785 Ry
     estimated scf accuracy    <       0.00000033 Ry

     iteration #  5     ecut=    40.00 Ry     beta= 0.70
     Davidson diagonalization with overlap
     ethr =  2.88E-09,  avg # of iterations =  1.9

     total cpu time spent up to now is       11.5 secs

     total energy              =     -93.45321787 Ry
     estimated scf accuracy    <          3.5E-09 Ry

     iteration #  6     ecut=    40.00 Ry     beta= 0.70
     Davidson diagonalization with overlap
     ethr =  4.38E-11,  avg # of iterations =  5.4

     total cpu time spent up to now is       11.8 secs

     total energy              =     -93.45321788 Ry
     estimated scf accuracy    <          7.9E-10 Ry

     iteration #  7     ecut=    40.00 Ry     beta= 0.70
     Davidson diagonalization with overlap
     ethr =  9.81E-12,  avg # of iterations =  1.8

     total cpu time spent up to now is       12.2 secs

     total energy              =     -93.45321788 Ry
     estimated scf accuracy    <          1.2E-10 Ry

     iteration #  8     ecut=    40.00 Ry     beta= 0.70
     Davidson diagonalization with overlap
     ethr =  1.44E-12,  avg # of iterations =  2.7

     total cpu time spent up to now is       12.7 secs

     End of self-consistent calculation

          k = 0.0000 0.0000 0.0000 (  1067 PWs)   bands (ev):

    -5.8125   6.0487   6.0487   6.0487

          k =-0.1212 0.1212-0.1212 (  1064 PWs)   bands (ev):

    -5.6111   4.4533   5.7638   5.7638

          k =-0.2424 0.2424-0.2424 (  1074 PWs)   bands (ev):

    -5.0237   2.1470   5.2981   5.2981

          k =-0.3636 0.3636-0.3636 (  1065 PWs)   bands (ev):

    -4.1438   0.1518   4.9737   4.9737

          k = 0.4848-0.4848 0.4848 (  1068 PWs)   bands (ev):

    -3.5193  -0.8534   4.8625   4.8625

          k = 0.0000 0.2424 0.0000 (  1054 PWs)   bands (ev):

    -5.5432   4.6993   5.2551   5.2551

          k =-0.1212 0.3636-0.1212 (  1059 PWs)   bands (ev):

    -5.0808   2.8341   4.7494   4.8166

          k =-0.2424 0.4848-0.2424 (  1061 PWs)   bands (ev):

    -4.2777   0.8004   4.2304   4.4833

          k = 0.6060-0.3636 0.6060 (  1074 PWs)   bands (ev):

    -3.4324  -0.6397   3.7906   4.5060

          k = 0.4848-0.2424 0.4848 (  1068 PWs)   bands (ev):

    -3.6718  -0.2758   3.6135   4.7976

          k = 0.3636-0.1212 0.3636 (  1067 PWs)   bands (ev):

    -4.5794   1.4506   3.7670   5.2823

          k = 0.2424 0.0000 0.2424 (  1055 PWs)   bands (ev):

    -5.2793   3.3682   4.4464   5.7574

          k = 0.0000 0.4848 0.0000 (  1062 PWs)   bands (ev):

    -4.7447   2.5265   4.1859   4.1859

          k =-0.1212 0.6060-0.1212 (  1058 PWs)   bands (ev):

    -4.0445   1.1215   3.4154   3.8711

          k = 0.7272-0.2424 0.7272 (  1076 PWs)   bands (ev):

    -3.1337  -0.2966   2.5627   3.8733

          k = 0.6060-0.1212 0.6060 (  1075 PWs)   bands (ev):

    -2.9345  -0.5490   2.1119   4.1869

          k = 0.4848 0.0000 0.4848 (  1065 PWs)   bands (ev):

    -3.7976   0.5929   2.3527   4.7371

          k = 0.0000 0.7272 0.0000 (  1058 PWs)   bands (ev):

    -3.4496   0.3221   3.4777   3.4777

          k = 0.8484-0.1212 0.8484 (  1067 PWs)   bands (ev):

    -2.5652  -0.7499   2.6653   3.4021

          k = 0.7272 0.0000 0.7272 (  1069 PWs)   bands (ev):

    -2.1376  -1.1384   1.8162   3.6560

          k = 0.0000-0.9696 0.0000 (  1090 PWs)   bands (ev):

    -1.7230  -1.7230   3.2348   3.2348

          k =-0.2424 0.4848 0.0000 (  1063 PWs)   bands (ev):

    -4.5010   1.7701   3.3766   4.6386

          k = 0.6060-0.3636 0.8484 (  1069 PWs)   bands (ev):

    -3.6263   0.2409   2.7710   4.1469

          k = 0.4848-0.2424 0.7272 (  1072 PWs)   bands (ev):

    -2.9870  -0.6860   2.6402   3.9218

          k = 0.7272-0.2424 0.9696 (  1067 PWs)   bands (ev):

    -3.2548   0.1057   2.7367   3.3320

          k = 0.6060-0.1212 0.8484 (  1073 PWs)   bands (ev):

    -2.3952  -0.8484   2.0512   3.1346

          k = 0.4848-0.0000 0.7272 (  1075 PWs)   bands (ev):

    -2.7408  -0.4890   1.8875   3.5041

          k =-0.2424-0.9696-0.0000 (  1070 PWs)   bands (ev):

    -1.6480  -1.6480   2.6844   2.6844

          k =-0.4848-0.9696 0.0000 (  1084 PWs)   bands (ev):

    -1.5658  -1.5658   2.2585   2.2585

     highest occupied level (ev):     6.0487

!    total energy              =     -93.45321788 Ry
     total all-electron energy =     -1160.144948 Ry
     estimated scf accuracy    <          8.4E-14 Ry

     The total energy is the sum of the following terms:
     one-electron contribution =       5.62110758 Ry
     hartree contribution      =       1.11450566 Ry
     xc contribution           =     -12.29090983 Ry
     ewald contribution        =     -16.71358263 Ry
     one-center paw contrib.   =     -71.18433866 Ry

     convergence has been achieved in   8 iterations

     Forces acting on atoms (cartesian axes, Ry/au):

     atom    1 type  1   force =     0.00000000    0.00000000   -0.00000000
     atom    2 type  1   force =     0.00000000    0.00000000   -0.00000000

     Total force =     0.000000     Total SCF correction =     0.000000


     Computing stress (Cartesian axis) and pressure

          total   stress  (Ry/bohr**3)                   (kbar)     P=        5.66
   0.00003845   0.00000000   0.00000000            5.66        0.00        0.00
   0.00000000   0.00003845  -0.00000000            0.00        5.66       -0.00
   0.00000000  -0.00000000   0.00003845            0.00       -0.00        5.66

     Energy error            =      1.6E-03 Ry
     Gradient error          =      1.0E-33 Ry/Bohr
     Cell gradient error     =      5.7E+00 kbar

     number of scf cycles    =   3
     number of bfgs steps    =   2

     enthalpy           old  =     -93.4515783339 Ry
     enthalpy           new  =     -93.4532178782 Ry

     CASE: enthalpy          _new < enthalpy          _old

     new trust radius        =       0.0064425109 bohr
ibrav =      2
 celldm(1) =     10.33368070
Input lattice vectors:
    -0.51668404    -0.00000000     0.51668404
     0.00000000     0.51668404     0.51668404
    -0.51668404     0.51668404    -0.00000000
New lattice vectors in INITIAL alat:
    -0.51668404     0.00000000     0.51668404
     0.00000000     0.51668404     0.51668404
    -0.51668404     0.51668404     0.00000000
New lattice vectors in NEW alat (for information only):
    -0.50000000     0.00000000     0.50000000
     0.00000000     0.50000000     0.50000000
    -0.50000000     0.50000000     0.00000000
Discrepancy in bohr =     0.000000    0.000000    0.000000

Atomic positions rescaled with new alat:
Si               0.0000000000        0.0000000000       -0.0000000000
Si               0.2500000000        0.2500000000        0.2500000000
     new conv_thr            =            1.0E-12 Ry

     new unit-cell volume =    275.87041 a.u.^3 (    40.87978 Ang^3 )
     density =      2.28167 g/cm^3

CELL_PARAMETERS (alat= 10.00000000)
  -0.516684035   0.000000000   0.516684035
   0.000000000   0.516684035   0.516684035
  -0.516684035   0.516684035   0.000000000

ATOMIC_POSITIONS (alat)
Si               0.0000000000        0.0000000000       -0.0000000000
Si               0.2583420176        0.2583420176        0.2583420176



     Writing config-only to output data dir ./tmp/si_vc.save/ :
     XML data file
     NEW-OLD atomic charge density approx. for the potential
     New effective cutoffs (rho, wfc):  298.72   37.46

     total cpu time spent up to now is       13.6 secs

     per-process dynamical memory:    45.2 Mb

     Self-consistent Calculation

     iteration #  1     ecut=    40.00 Ry     beta= 0.70
     Davidson diagonalization with overlap
     ethr =  1.00E-06,  avg # of iterations =  3.0

     Threshold (ethr) on eigenvalues was too large:
     Diagonalizing with lowered threshold

     Davidson diagonalization with overlap
     ethr =  2.49E-08,  avg # of iterations =  4.6

     total cpu time spent up to now is       14.1 secs

     total energy              =     -93.45325059 Ry
     estimated scf accuracy    <       0.00000103 Ry

     iteration #  2     ecut=    40.00 Ry     beta= 0.70
     Davidson diagonalization with overlap
     ethr =  1.28E-08,  avg # of iterations =  1.7

     total cpu time spent up to now is       14.6 secs

     total energy              =     -93.45325064 Ry
     estimated scf accuracy    <       0.00000004 Ry

     iteration #  3     ecut=    40.00 Ry     beta= 0.70
     Davidson diagonalization with overlap
     ethr =  4.89E-10,  avg # of iterations =  3.6

     total cpu time spent up to now is       15.0 secs

     total energy              =     -93.45325068 Ry
     estimated scf accuracy    <          4.8E-09 Ry

     iteration #  4     ecut=    40.00 Ry     beta= 0.70
     Davidson diagonalization with overlap
     ethr =  6.04E-11,  avg # of iterations =  2.6

     total cpu time spent up to now is       15.5 secs

     total energy              =     -93.45325068 Ry
     estimated scf accuracy    <          6.2E-09 Ry

     iteration #  5     ecut=    40.00 Ry     beta= 0.70
     Davidson diagonalization with overlap
     ethr =  6.04E-11,  avg # of iterations =  1.8

     total cpu time spent up to now is       15.9 secs

     total energy              =     -93.45325068 Ry
     estimated scf accuracy    <          6.6E-11 Ry

     iteration #  6     ecut=    40.00 Ry     beta= 0.70
     Davidson diagonalization with overlap
     ethr =  8.24E-13,  avg # of iterations =  5.5

     total cpu time spent up to now is       16.3 secs

     total energy              =     -93.45325068 Ry
     estimated scf accuracy    <          9.9E-12 Ry

     iteration #  7     ecut=    40.00 Ry     beta= 0.70
     Davidson diagonalization with overlap
     ethr =  1.23E-13,  avg # of iterations =  2.2

     total cpu time spent up to now is       16.7 secs

     End of self-consistent calculation

          k = 0.0000 0.0000 0.0000 (  1067 PWs)   bands (ev):

    -5.8330   5.9886   5.9886   5.9886

          k =-0.1210 0.1210-0.1210 (  1064 PWs)   bands (ev):

    -5.6326   4.3947   5.7054   5.7054

          k =-0.2419 0.2419-0.2419 (  1074 PWs)   bands (ev):

    -5.0483   2.0973   5.2418   5.2418

          k =-0.3629 0.3629-0.3629 (  1065 PWs)   bands (ev):

    -4.1737   0.1118   4.9184   4.9184

          k = 0.4839-0.4839 0.4839 (  1068 PWs)   bands (ev):

    -3.5543  -0.8866   4.8076   4.8076

          k = 0.0000 0.2419 0.0000 (  1054 PWs)   bands (ev):

    -5.5650   4.6334   5.2003   5.2003

          k =-0.1210 0.3629-0.1210 (  1059 PWs)   bands (ev):

    -5.1050   2.7782   4.6971   4.7609

          k =-0.2419 0.4839-0.2419 (  1061 PWs)   bands (ev):

    -4.3065   0.7551   4.1768   4.4318

          k = 0.6048-0.3629 0.6048 (  1074 PWs)   bands (ev):

    -3.4674  -0.6760   3.7394   4.4538

          k = 0.4839-0.2419 0.4839 (  1068 PWs)   bands (ev):

    -3.7047  -0.3146   3.5641   4.7434

          k = 0.3629-0.1210 0.3629 (  1067 PWs)   bands (ev):

    -4.6065   1.4017   3.7186   5.2254

          k = 0.2419 0.0000 0.2419 (  1055 PWs)   bands (ev):

    -5.3026   3.3099   4.3967   5.6980

          k = 0.0000 0.4839 0.0000 (  1062 PWs)   bands (ev):

    -4.7706   2.4651   4.1367   4.1367

          k =-0.1210 0.6048-0.1210 (  1058 PWs)   bands (ev):

    -4.0741   1.0675   3.3701   3.8232

          k = 0.7258-0.2419 0.7258 (  1076 PWs)   bands (ev):

    -3.1691  -0.3413   2.5216   3.8251

          k = 0.6048-0.1210 0.6048 (  1075 PWs)   bands (ev):

    -2.9719  -0.5914   2.0740   4.1367

          k = 0.4839 0.0000 0.4839 (  1065 PWs)   bands (ev):

    -3.8291   0.5432   2.3149   4.6836

          k = 0.0000 0.7258 0.0000 (  1058 PWs)   bands (ev):

    -3.4821   0.2703   3.4317   3.4317

          k = 0.8467-0.1210 0.8467 (  1067 PWs)   bands (ev):

    -2.6027  -0.7966   2.6258   3.3564

          k = 0.7258 0.0000 0.7258 (  1069 PWs)   bands (ev):

    -2.1793  -1.1820   1.7832   3.6089

          k = 0.0000-0.9677 0.0000 (  1090 PWs)   bands (ev):

    -1.7645  -1.7645   3.1900   3.1900

          k =-0.2419 0.4839 0.0000 (  1063 PWs)   bands (ev):

    -4.5283   1.7149   3.3326   4.5857

          k = 0.6048-0.3629 0.8467 (  1069 PWs)   bands (ev):

    -3.6588   0.1946   2.7282   4.0977

          k = 0.4839-0.2419 0.7258 (  1072 PWs)   bands (ev):

    -3.0245  -0.7253   2.5967   3.8745

          k = 0.7258-0.2419 0.9677 (  1067 PWs)   bands (ev):

    -3.2888   0.0549   2.6963   3.2886

          k = 0.6048-0.1210 0.8467 (  1073 PWs)   bands (ev):

    -2.4351  -0.8939   2.0158   3.0925

          k = 0.4839 0.0000 0.7258 (  1075 PWs)   bands (ev):

    -2.7788  -0.5360   1.8533   3.4595

          k =-0.2419-0.9677-0.0000 (  1070 PWs)   bands (ev):

    -1.6907  -1.6907   2.6449   2.6449

          k =-0.4839-0.9677 0.0000 (  1084 PWs)   bands (ev):

    -1.6098  -1.6098   2.2229   2.2229

     highest occupied level (ev):     5.9886

!    total energy              =     -93.45325068 Ry
     total all-electron energy =     -1160.144981 Ry
     estimated scf accuracy    <          1.3E-13 Ry

     The total energy is the sum of the following terms:
     one-electron contribution =       5.57548512 Ry
     hartree contribution      =       1.11970597 Ry
     xc contribution           =     -12.28388948 Ry
     ewald contribution        =     -16.68113641 Ry
     one-center paw contrib.   =     -71.18341588 Ry

     convergence has been achieved in   7 iterations

     Forces acting on atoms (cartesian axes, Ry/au):

     atom    1 type  1   force =     0.00000000    0.00000000    0.00000000
     atom    2 type  1   force =     0.00000000    0.00000000    0.00000000

     Total force =     0.000000     Total SCF correction =     0.000000


     Computing stress (Cartesian axis) and pressure

          total   stress  (Ry/bohr**3)                   (kbar)     P=        0.39
   0.00000263   0.00000000  -0.00000000            0.39        0.00       -0.00
   0.00000000   0.00000263   0.00000000            0.00        0.39        0.00
  -0.00000000   0.00000000   0.00000263           -0.00        0.00        0.39

     Energy error            =      3.3E-05 Ry
     Gradient error          =      1.1E-32 Ry/Bohr
     Cell gradient error     =      3.9E-01 kbar

     number of scf cycles    =   4
     number of bfgs steps    =   3

     enthalpy           old  =     -93.4532178782 Ry
     enthalpy           new  =     -93.4532506783 Ry

     CASE: enthalpy          _new < enthalpy          _old

     new trust radius        =       0.0004757225 bohr
ibrav =      2
 celldm(1) =     10.33516058
Input lattice vectors:
    -0.51675803     0.00000000     0.51675803
    -0.00000000     0.51675803     0.51675803
    -0.51675803     0.51675803     0.00000000
New lattice vectors in INITIAL alat:
    -0.51675803     0.00000000     0.51675803
     0.00000000     0.51675803     0.51675803
    -0.51675803     0.51675803     0.00000000
New lattice vectors in NEW alat (for information only):
    -0.50000000     0.00000000     0.50000000
     0.00000000     0.50000000     0.50000000
    -0.50000000     0.50000000     0.00000000
Discrepancy in bohr =     0.000000    0.000000    0.000000

Atomic positions rescaled with new alat:
Si               0.0000000000        0.0000000000       -0.0000000000
Si               0.2500000000        0.2500000000        0.2500000000
     new conv_thr            =            1.0E-12 Ry

     new unit-cell volume =    275.98895 a.u.^3 (    40.89734 Ang^3 )
     density =      2.28069 g/cm^3

CELL_PARAMETERS (alat= 10.00000000)
  -0.516758029   0.000000000   0.516758029
   0.000000000   0.516758029   0.516758029
  -0.516758029   0.516758029   0.000000000

ATOMIC_POSITIONS (alat)
Si               0.0000000000        0.0000000000       -0.0000000000
Si               0.2583790146        0.2583790146        0.2583790146



     Writing config-only to output data dir ./tmp/si_vc.save/ :
     XML data file
     NEW-OLD atomic charge density approx. for the potential
     New effective cutoffs (rho, wfc):  298.63   37.44

     total cpu time spent up to now is       17.6 secs

     per-process dynamical memory:    45.2 Mb

     Self-consistent Calculation

     iteration #  1     ecut=    40.00 Ry     beta= 0.70
     Davidson diagonalization with overlap
     ethr =  1.00E-06,  avg # of iterations =  2.0

     Threshold (ethr) on eigenvalues was too large:
     Diagonalizing with lowered threshold

     Davidson diagonalization with overlap
     ethr =  1.80E-10,  avg # of iterations =  4.8

     total cpu time spent up to now is       18.2 secs

     total energy              =     -93.45325083 Ry
     estimated scf accuracy    <          5.7E-09 Ry

     iteration #  2     ecut=    40.00 Ry     beta= 0.70
     Davidson diagonalization with overlap
     ethr =  7.07E-11,  avg # of iterations =  1.8

     total cpu time spent up to now is       18.6 secs

     total energy              =     -93.45325084 Ry
     estimated scf accuracy    <          2.1E-10 Ry

     iteration #  3     ecut=    40.00 Ry     beta= 0.70
     Davidson diagonalization with overlap
     ethr =  2.59E-12,  avg # of iterations =  3.8

     total cpu time spent up to now is       19.0 secs

     total energy              =     -93.45325084 Ry
     estimated scf accuracy    <          2.8E-11 Ry

     iteration #  4     ecut=    40.00 Ry     beta= 0.70
     Davidson diagonalization with overlap
     ethr =  3.52E-13,  avg # of iterations =  2.9

     total cpu time spent up to now is       19.5 secs

     total energy              =     -93.45325084 Ry
     estimated scf accuracy    <          3.8E-11 Ry

     iteration #  5     ecut=    40.00 Ry     beta= 0.70
     Davidson diagonalization with overlap
     ethr =  3.52E-13,  avg # of iterations =  1.8

     total cpu time spent up to now is       19.9 secs

     End of self-consistent calculation

          k = 0.0000 0.0000 0.0000 (  1067 PWs)   bands (ev):

    -5.8345   5.9842   5.9842   5.9842

          k =-0.1209 0.1209-0.1209 (  1064 PWs)   bands (ev):

    -5.6342   4.3904   5.7011   5.7011

          k =-0.2419 0.2419-0.2419 (  1074 PWs)   bands (ev):

    -5.0501   2.0936   5.2376   5.2376

          k =-0.3628 0.3628-0.3628 (  1065 PWs)   bands (ev):

    -4.1759   0.1089   4.9144   4.9144

          k = 0.4838-0.4838 0.4838 (  1068 PWs)   bands (ev):

    -3.5569  -0.8891   4.8036   4.8036

          k = 0.0000 0.2419 0.0000 (  1054 PWs)   bands (ev):

    -5.5666   4.6286   5.1963   5.1963

          k =-0.1209 0.3628-0.1209 (  1059 PWs)   bands (ev):

    -5.1068   2.7741   4.6933   4.7568

          k =-0.2419 0.4838-0.2419 (  1061 PWs)   bands (ev):

    -4.3086   0.7518   4.1729   4.4280

          k = 0.6047-0.3628 0.6047 (  1074 PWs)   bands (ev):

    -3.4700  -0.6786   3.7356   4.4499

          k = 0.4838-0.2419 0.4838 (  1068 PWs)   bands (ev):

    -3.7071  -0.3174   3.5605   4.7394

          k = 0.3628-0.1209 0.3628 (  1067 PWs)   bands (ev):

    -4.6085   1.3981   3.7150   5.2212

          k = 0.2419 0.0000 0.2419 (  1055 PWs)   bands (ev):

    -5.3043   3.3056   4.3931   5.6936

          k = 0.0000 0.4838 0.0000 (  1062 PWs)   bands (ev):

    -4.7725   2.4606   4.1330   4.1330

          k =-0.1209 0.6047-0.1209 (  1058 PWs)   bands (ev):

    -4.0763   1.0636   3.3668   3.8197

          k = 0.7257-0.2419 0.7257 (  1076 PWs)   bands (ev):

    -3.1717  -0.3446   2.5186   3.8216

          k = 0.6047-0.1209 0.6047 (  1075 PWs)   bands (ev):

    -2.9746  -0.5945   2.0712   4.1330

          k = 0.4838 0.0000 0.4838 (  1065 PWs)   bands (ev):

    -3.8314   0.5395   2.3121   4.6797

          k = 0.0000 0.7257 0.0000 (  1058 PWs)   bands (ev):

    -3.4845   0.2664   3.4284   3.4284

          k = 0.8466-0.1209 0.8466 (  1067 PWs)   bands (ev):

    -2.6055  -0.8001   2.6229   3.3531

          k = 0.7257 0.0000 0.7257 (  1069 PWs)   bands (ev):

    -2.1824  -1.1852   1.7808   3.6054

          k = 0.0000-0.9676 0.0000 (  1090 PWs)   bands (ev):

    -1.7675  -1.7675   3.1867   3.1867

          k =-0.2419 0.4838 0.0000 (  1063 PWs)   bands (ev):

    -4.5303   1.7109   3.3294   4.5818

          k = 0.6047-0.3628 0.8466 (  1069 PWs)   bands (ev):

    -3.6612   0.1912   2.7250   4.0941

          k = 0.4838-0.2419 0.7257 (  1072 PWs)   bands (ev):

    -3.0272  -0.7282   2.5935   3.8710

          k = 0.7257-0.2419 0.9676 (  1067 PWs)   bands (ev):

    -3.2913   0.0512   2.6933   3.2854

          k = 0.6047-0.1209 0.8466 (  1073 PWs)   bands (ev):

    -2.4380  -0.8973   2.0132   3.0894

          k = 0.4838 0.0000 0.7257 (  1075 PWs)   bands (ev):

    -2.7815  -0.5394   1.8508   3.4562

          k =-0.2419-0.9676-0.0000 (  1070 PWs)   bands (ev):

    -1.6938  -1.6938   2.6420   2.6420

          k =-0.4838-0.9676 0.0000 (  1084 PWs)   bands (ev):

    -1.6131  -1.6131   2.2203   2.2203

     highest occupied level (ev):     5.9842

!    total energy              =     -93.45325084 Ry
     total all-electron energy =     -1160.144981 Ry
     estimated scf accuracy    <          4.2E-13 Ry

     The total energy is the sum of the following terms:
     one-electron contribution =       5.57212934 Ry
     hartree contribution      =       1.12008870 Ry
     xc contribution           =     -12.28337283 Ry
     ewald contribution        =     -16.67874786 Ry
     one-center paw contrib.   =     -71.18334818 Ry

     convergence has been achieved in   5 iterations

     Forces acting on atoms (cartesian axes, Ry/au):

     atom    1 type  1   force =     0.00000000    0.00000000    0.00000000
     atom    2 type  1   force =    -0.00000000   -0.00000000   -0.00000000

     Total force =     0.000000     Total SCF correction =     0.000000


     Computing stress (Cartesian axis) and pressure

          total   stress  (Ry/bohr**3)                   (kbar)     P=        0.00
   0.00000002  -0.00000000   0.00000000            0.00       -0.00        0.00
  -0.00000000   0.00000002  -0.00000000           -0.00        0.00       -0.00
   0.00000000  -0.00000000   0.00000002            0.00       -0.00        0.00

     Energy error            =      1.6E-07 Ry
     Gradient error          =      1.6E-31 Ry/Bohr
     Cell gradient error     =      3.3E-03 kbar
ibrav =      2
 celldm(1) =     10.33516058
Input lattice vectors:
    -0.51675803     0.00000000     0.51675803
     0.00000000     0.51675803     0.51675803
    -0.51675803     0.51675803     0.00000000
New lattice vectors in INITIAL alat:
    -0.51675803     0.00000000     0.51675803
     0.00000000     0.51675803     0.51675803
    -0.51675803     0.51675803     0.00000000
New lattice vectors in NEW alat (for information only):
    -0.50000000     0.00000000     0.50000000
     0.00000000     0.50000000     0.50000000
    -0.50000000     0.50000000     0.00000000
Discrepancy in bohr =     0.000000    0.000000    0.000000

Atomic positions rescaled with new alat:
Si               0.0000000000        0.0000000000       -0.0000000000
Si               0.2500000000        0.2500000000        0.2500000000

     bfgs converged in   5 scf cycles and   4 bfgs steps
     (criteria: energy <  1.0E-05 Ry, force <  1.0E-04 Ry/Bohr, cell <  1.0E-01 kbar)

     End of BFGS Geometry Optimization

     Final enthalpy           =     -93.4532508364 Ry

     File ./tmp/si_vc.bfgs deleted, as requested
Begin final coordinates
     new unit-cell volume =    275.98895 a.u.^3 (    40.89734 Ang^3 )
     density =      2.28069 g/cm^3

CELL_PARAMETERS (alat= 10.00000000)
  -0.516758029   0.000000000   0.516758029
   0.000000000   0.516758029   0.516758029
  -0.516758029   0.516758029   0.000000000

ATOMIC_POSITIONS (alat)
Si               0.0000000000        0.0000000000       -0.0000000000
Si               0.2583790146        0.2583790146        0.2583790146
End final coordinates



     Writing config-only to output data dir ./tmp/si_vc.save/ :
     XML data file

     Final scf calculation at the relaxed structure.
     The G-vectors are recalculated for the final unit cell
     Results may differ from those at the preceding step.

     G-vector sticks info
     --------------------
     sticks:   dense  smooth     PW     G-vecs:    dense   smooth      PW
     Sum        1165     583    187                26565     9409    1687

     Using Slab Decomposition



     bravais-lattice index     =            2
     lattice parameter (alat)  =      10.0000  a.u.
     unit-cell volume          =     275.9890 (a.u.)^3
     number of atoms/cell      =            2
     number of atomic types    =            1
     number of electrons       =         8.00
     number of Kohn-Sham states=            4
     kinetic-energy cutoff     =      40.0000  Ry
     charge density cutoff     =     320.0000  Ry
     scf convergence threshold =      1.0E-12
     mixing beta               =       0.7000
     number of iterations used =            8  plain     mixing
     press convergence thresh. =      1.0E-01
     Exchange-correlation= SLA  PW   PBX  PBC
                           (   1   4   3   4   0   0   0)

     celldm(1)=  10.000000  celldm(2)=   0.000000  celldm(3)=   0.000000
     celldm(4)=   0.000000  celldm(5)=   0.000000  celldm(6)=   0.000000

     crystal axes: (cart. coord. in units of alat)
               a(1) = (  -0.516758   0.000000   0.516758 )  
               a(2) = (   0.000000   0.516758   0.516758 )  
               a(3) = (  -0.516758   0.516758   0.000000 )  

     reciprocal axes: (cart. coord. in units 2 pi/alat)
               b(1) = ( -0.967571 -0.967571  0.967571 )  
               b(2) = (  0.967571  0.967571  0.967571 )  
               b(3) = ( -0.967571  0.967571 -0.967571 )  


     PseudoPot. # 1 for Si read from file:
     ./pseudo/Si.pbe-n-kjpaw_psl.1.0.0.UPF
     MD5 check sum: c39c59da582df4a0d9f10159256ea34e
     Pseudo is Projector augmented-wave + core cor, Zval =  4.0
     Generated using &quot;atomic&quot; code by A. Dal Corso  v.6.3
     Shape of augmentation charge: PSQ
     Using radial grid of 1141 points,  6 beta functions with: 
                l(1) =   0
                l(2) =   0
                l(3) =   1
                l(4) =   1
                l(5) =   2
                l(6) =   2
     Q(r) pseudized with 0 coefficients 


     atomic species   valence    mass     pseudopotential
     Si                4.00    28.08550     Si( 1.00)

     48 Sym. Ops., with inversion, found (24 have fractional translation)



   Cartesian axes

     site n.     atom                  positions (alat units)
         1        Si     tau(   1) = (   0.0000000   0.0000000  -0.0000000  )
         2        Si     tau(   2) = (   0.2583790   0.2583790   0.2583790  )

     number of k points=    29
                       cart. coord. in units 2pi/alat
        k(    1) = (   0.0000000   0.0000000   0.0000000), wk =   0.0039062
        k(    2) = (  -0.1209464   0.1209464  -0.1209464), wk =   0.0312500
        k(    3) = (  -0.2418927   0.2418927  -0.2418927), wk =   0.0312500
        k(    4) = (  -0.3628391   0.3628391  -0.3628391), wk =   0.0312500
        k(    5) = (   0.4837854  -0.4837854   0.4837854), wk =   0.0156250
        k(    6) = (   0.0000000   0.2418927   0.0000000), wk =   0.0234375
        k(    7) = (  -0.1209464   0.3628391  -0.1209464), wk =   0.0937500
        k(    8) = (  -0.2418927   0.4837854  -0.2418927), wk =   0.0937500
        k(    9) = (   0.6047318  -0.3628391   0.6047318), wk =   0.0937500
        k(   10) = (   0.4837854  -0.2418927   0.4837854), wk =   0.0937500
        k(   11) = (   0.3628391  -0.1209464   0.3628391), wk =   0.0937500
        k(   12) = (   0.2418927   0.0000000   0.2418927), wk =   0.0468750
        k(   13) = (   0.0000000   0.4837854   0.0000000), wk =   0.0234375
        k(   14) = (  -0.1209464   0.6047318  -0.1209464), wk =   0.0937500
        k(   15) = (   0.7256781  -0.2418927   0.7256781), wk =   0.0937500
        k(   16) = (   0.6047318  -0.1209464   0.6047318), wk =   0.0937500
        k(   17) = (   0.4837854   0.0000000   0.4837854), wk =   0.0468750
        k(   18) = (   0.0000000   0.7256781   0.0000000), wk =   0.0234375
        k(   19) = (   0.8466245  -0.1209464   0.8466245), wk =   0.0937500
        k(   20) = (   0.7256781   0.0000000   0.7256781), wk =   0.0468750
        k(   21) = (   0.0000000  -0.9675708   0.0000000), wk =   0.0117188
        k(   22) = (  -0.2418927   0.4837854   0.0000000), wk =   0.0937500
        k(   23) = (   0.6047318  -0.3628391   0.8466245), wk =   0.1875000
        k(   24) = (   0.4837854  -0.2418927   0.7256781), wk =   0.0937500
        k(   25) = (   0.7256781  -0.2418927   0.9675708), wk =   0.0937500
        k(   26) = (   0.6047318  -0.1209464   0.8466245), wk =   0.1875000
        k(   27) = (   0.4837854   0.0000000   0.7256781), wk =   0.0937500
        k(   28) = (  -0.2418927  -0.9675708  -0.0000000), wk =   0.0468750
        k(   29) = (  -0.4837854  -0.9675708   0.0000000), wk =   0.0234375

     Dense  grid:    26565 G-vectors     FFT dimensions: (  48,  48,  48)

     Smooth grid:     9409 G-vectors     FFT dimensions: (  32,  32,  32)

     Estimated max dynamical RAM per process >      36.39 MB

     Estimated total dynamical RAM >     185.91 MB

     Initial potential from superposition of free atoms

     starting charge       7.9989, renormalised to       8.0000
     Starting wfcs are    8 randomized atomic wfcs
     Checking if some PAW data can be deallocated... 

     total cpu time spent up to now is       20.7 secs

     per-process dynamical memory:    43.5 Mb

     Self-consistent Calculation

     iteration #  1     ecut=    40.00 Ry     beta= 0.70
     Davidson diagonalization with overlap
     ethr =  1.00E-06,  avg # of iterations = 11.0

     total cpu time spent up to now is       21.1 secs

     total energy              =     -93.45096811 Ry
     estimated scf accuracy    <       0.05495851 Ry

     iteration #  2     ecut=    40.00 Ry     beta= 0.70
     Davidson diagonalization with overlap
     ethr =  6.87E-04,  avg # of iterations =  1.0

     total cpu time spent up to now is       21.5 secs

     total energy              =     -93.45291145 Ry
     estimated scf accuracy    <       0.00239080 Ry

     iteration #  3     ecut=    40.00 Ry     beta= 0.70
     Davidson diagonalization with overlap
     ethr =  2.99E-05,  avg # of iterations =  1.9

     total cpu time spent up to now is       21.8 secs

     total energy              =     -93.45322570 Ry
     estimated scf accuracy    <       0.00002429 Ry

     iteration #  4     ecut=    40.00 Ry     beta= 0.70
     Davidson diagonalization with overlap
     ethr =  3.04E-07,  avg # of iterations =  5.4

     total cpu time spent up to now is       22.2 secs

     total energy              =     -93.45327365 Ry
     estimated scf accuracy    <       0.00000697 Ry

     iteration #  5     ecut=    40.00 Ry     beta= 0.70
     Davidson diagonalization with overlap
     ethr =  8.72E-08,  avg # of iterations =  2.2

     total cpu time spent up to now is       22.7 secs

     total energy              =     -93.45327326 Ry
     estimated scf accuracy    <       0.00000672 Ry

     iteration #  6     ecut=    40.00 Ry     beta= 0.70
     Davidson diagonalization with overlap
     ethr =  8.40E-08,  avg # of iterations =  1.7

     total cpu time spent up to now is       23.1 secs

     total energy              =     -93.45327383 Ry
     estimated scf accuracy    <       0.00000002 Ry

     iteration #  7     ecut=    40.00 Ry     beta= 0.70
     Davidson diagonalization with overlap
     ethr =  2.80E-10,  avg # of iterations =  5.9

     total cpu time spent up to now is       23.5 secs

     total energy              =     -93.45327391 Ry
     estimated scf accuracy    <          6.7E-09 Ry

     iteration #  8     ecut=    40.00 Ry     beta= 0.70
     Davidson diagonalization with overlap
     ethr =  8.39E-11,  avg # of iterations =  1.5

     total cpu time spent up to now is       23.9 secs

     total energy              =     -93.45327391 Ry
     estimated scf accuracy    <          1.3E-09 Ry

     iteration #  9     ecut=    40.00 Ry     beta= 0.70
     Davidson diagonalization with overlap
     ethr =  1.69E-11,  avg # of iterations =  2.8

     total cpu time spent up to now is       24.2 secs

     total energy              =     -93.45327391 Ry
     estimated scf accuracy    <          6.4E-10 Ry

     iteration # 10     ecut=    40.00 Ry     beta= 0.70
     Davidson diagonalization with overlap
     ethr =  8.03E-12,  avg # of iterations =  1.2

     total cpu time spent up to now is       24.6 secs

     total energy              =     -93.45327391 Ry
     estimated scf accuracy    <          2.2E-11 Ry

     iteration # 11     ecut=    40.00 Ry     beta= 0.70
     Davidson diagonalization with overlap
     ethr =  2.78E-13,  avg # of iterations =  4.7

     total cpu time spent up to now is       25.0 secs

     End of self-consistent calculation

          k = 0.0000 0.0000 0.0000 (  1243 PWs)   bands (ev):

    -5.8347   5.9842   5.9842   5.9842

          k =-0.1209 0.1209-0.1209 (  1203 PWs)   bands (ev):

    -5.6343   4.3904   5.7011   5.7011

          k =-0.2419 0.2419-0.2419 (  1185 PWs)   bands (ev):

    -5.0502   2.0936   5.2376   5.2376

          k =-0.3628 0.3628-0.3628 (  1170 PWs)   bands (ev):

    -4.1760   0.1089   4.9144   4.9144

          k = 0.4838-0.4838 0.4838 (  1170 PWs)   bands (ev):

    -3.5570  -0.8891   4.8036   4.8036

          k = 0.0000 0.2419 0.0000 (  1195 PWs)   bands (ev):

    -5.5668   4.6285   5.1963   5.1963

          k =-0.1209 0.3628-0.1209 (  1185 PWs)   bands (ev):

    -5.1069   2.7740   4.6933   4.7568

          k =-0.2419 0.4838-0.2419 (  1174 PWs)   bands (ev):

    -4.3086   0.7517   4.1729   4.4280

          k = 0.6047-0.3628 0.6047 (  1180 PWs)   bands (ev):

    -3.4700  -0.6787   3.7356   4.4499

          k = 0.4838-0.2419 0.4838 (  1179 PWs)   bands (ev):

    -3.7072  -0.3175   3.5604   4.7394

          k = 0.3628-0.1209 0.3628 (  1182 PWs)   bands (ev):

    -4.6085   1.3981   3.7150   5.2212

          k = 0.2419 0.0000 0.2419 (  1187 PWs)   bands (ev):

    -5.3044   3.3055   4.3930   5.6936

          k = 0.0000 0.4838 0.0000 (  1174 PWs)   bands (ev):

    -4.7726   2.4606   4.1330   4.1330

          k =-0.1209 0.6047-0.1209 (  1185 PWs)   bands (ev):

    -4.0764   1.0635   3.3668   3.8197

          k = 0.7257-0.2419 0.7257 (  1178 PWs)   bands (ev):

    -3.1718  -0.3447   2.5186   3.8216

          k = 0.6047-0.1209 0.6047 (  1175 PWs)   bands (ev):

    -2.9747  -0.5945   2.0712   4.1330

          k = 0.4838 0.0000 0.4838 (  1171 PWs)   bands (ev):

    -3.8314   0.5395   2.3121   4.6797

          k = 0.0000 0.7257 0.0000 (  1190 PWs)   bands (ev):

    -3.4846   0.2664   3.4284   3.4284

          k = 0.8466-0.1209 0.8466 (  1176 PWs)   bands (ev):

    -2.6055  -0.8001   2.6229   3.3531

          k = 0.7257 0.0000 0.7257 (  1172 PWs)   bands (ev):

    -2.1825  -1.1853   1.7808   3.6054

          k = 0.0000-0.9676 0.0000 (  1162 PWs)   bands (ev):

    -1.7676  -1.7676   3.1867   3.1867

          k =-0.2419 0.4838 0.0000 (  1179 PWs)   bands (ev):

    -4.5304   1.7108   3.3294   4.5818

          k = 0.6047-0.3628 0.8466 (  1177 PWs)   bands (ev):

    -3.6612   0.1912   2.7250   4.0941

          k = 0.4838-0.2419 0.7257 (  1176 PWs)   bands (ev):

    -3.0273  -0.7282   2.5935   3.8710

          k = 0.7257-0.2419 0.9676 (  1183 PWs)   bands (ev):

    -3.2913   0.0511   2.6933   3.2854

          k = 0.6047-0.1209 0.8466 (  1176 PWs)   bands (ev):

    -2.4380  -0.8973   2.0132   3.0894

          k = 0.4838 0.0000 0.7257 (  1176 PWs)   bands (ev):

    -2.7816  -0.5395   1.8508   3.4562

          k =-0.2419-0.9676-0.0000 (  1176 PWs)   bands (ev):

    -1.6939  -1.6939   2.6419   2.6419

          k =-0.4838-0.9676 0.0000 (  1176 PWs)   bands (ev):

    -1.6131  -1.6131   2.2203   2.2203

     highest occupied level (ev):     5.9842

!    total energy              =     -93.45327391 Ry
     total all-electron energy =     -1160.145004 Ry
     estimated scf accuracy    <          6.5E-14 Ry

     The total energy is the sum of the following terms:
     one-electron contribution =       5.57211076 Ry
     hartree contribution      =       1.12008275 Ry
     xc contribution           =     -12.28338402 Ry
     ewald contribution        =     -16.67874786 Ry
     one-center paw contrib.   =     -71.18333556 Ry

     convergence has been achieved in  11 iterations

     Forces acting on atoms (cartesian axes, Ry/au):

     atom    1 type  1   force =    -0.00000000   -0.00000000    0.00000000
     atom    2 type  1   force =    -0.00000000   -0.00000000   -0.00000000

     Total force =     0.000000     Total SCF correction =     0.000000


     Computing stress (Cartesian axis) and pressure

          total   stress  (Ry/bohr**3)                   (kbar)     P=       -0.03
  -0.00000019   0.00000000   0.00000000           -0.03        0.00        0.00
   0.00000000  -0.00000019  -0.00000000            0.00       -0.03       -0.00
   0.00000000  -0.00000000  -0.00000019            0.00       -0.00       -0.03


     Writing all to output data dir ./tmp/si_vc.save/ :
     XML data file, charge density, pseudopotentials, collected wavefunctions

     init_run     :      2.40s CPU      2.55s WALL (       2 calls)
     electrons    :     17.93s CPU     18.25s WALL (       6 calls)
     update_pot   :      0.90s CPU      0.92s WALL (       4 calls)
     forces       :      0.61s CPU      0.61s WALL (       6 calls)
     stress       :      2.14s CPU      2.14s WALL (       6 calls)

     Called by init_run:
     wfcinit      :      0.14s CPU      0.15s WALL (       2 calls)
     potinit      :      1.04s CPU      1.16s WALL (       2 calls)
     hinit0       :      1.05s CPU      1.06s WALL (       2 calls)

     Called by electrons:
     c_bands      :      3.85s CPU      3.96s WALL (      50 calls)
     sum_band     :      2.52s CPU      2.57s WALL (      50 calls)
     v_of_rho     :      2.71s CPU      2.75s WALL (      53 calls)
     newd         :      1.28s CPU      1.29s WALL (      53 calls)
     PAW_pot      :      8.97s CPU      9.16s WALL (      57 calls)
     mix_rho      :      0.17s CPU      0.17s WALL (      50 calls)

     Called by c_bands:
     init_us_2    :      0.26s CPU      0.27s WALL (     590 calls)
     cegterg      :      1.97s CPU      2.03s WALL (     250 calls)

     Called by *egterg:
     cdiaghg      :      0.06s CPU      0.06s WALL (    1076 calls)
     h_psi        :      1.79s CPU      1.84s WALL (    1121 calls)
     s_psi        :      0.07s CPU      0.07s WALL (    1121 calls)
     g_psi        :      0.02s CPU      0.02s WALL (     861 calls)

     Called by h_psi:
     h_psi:calbec :      0.18s CPU      0.18s WALL (    1121 calls)
     vloc_psi     :      1.49s CPU      1.53s WALL (    1121 calls)
                                        0.00s GPU  (    1121 calls)
     add_vuspsi   :      0.10s CPU      0.10s WALL (    1121 calls)

     General routines
     calbec       :      0.26s CPU      0.27s WALL (    1901 calls)
     fft          :      1.76s CPU      1.77s WALL (     834 calls)
     ffts         :      0.14s CPU      0.14s WALL (     103 calls)
     fftw         :      1.32s CPU      1.35s WALL (    8168 calls)
     interpolate  :      0.26s CPU      0.27s WALL (      53 calls)

     Parallel routines

     PWSCF        :     24.96s CPU     25.50s WALL


   This run was terminated on:  15:49:50  25Jul2026            

=------------------------------------------------------------------------------=
   JOB DONE.
=------------------------------------------------------------------------------=
