
     Program PWSCF v.7.5 starts on 25Jul2026 at 15:38:16 

     This program is part of the open-source Quantum ESPRESSO suite
     for quantum simulation of materials; please cite
         "P. Giannozzi et al., J. Phys.:Condens. Matter 21 395502 (2009);
         "P. Giannozzi et al., J. Phys.:Condens. Matter 29 465901 (2017);
         "P. Giannozzi et al., J. Chem. Phys. 152 154105 (2020);
          URL http://www.quantum-espresso.org", 
     in publications or presentations arising from this work. More details at
     http://www.quantum-espresso.org/quote

     Parallel version (MPI & OpenMP), running on       8 processor cores
     Number of MPI processes:                 8
     Threads/MPI process:                     1

     MPI processes distributed on     1 nodes
     14700 MiB available memory on the printing compute node when the environment starts

     Reading input from feo.scf.in

     Current dimensions of program PWSCF are:
     Max number of different atomic species (ntypx) = 10
     Max number of k-points (npk) =  40000
     Max angular momentum in pseudopotentials (lmaxx) =  4
     file Fe.pbe-spn-kjpaw_psl.1.0.0.UPF: wavefunction(s)  3P 3D renormalized
     file Fe.pbe-spn-kjpaw_psl.1.0.0.UPF: wavefunction(s)  3P 3D renormalized
     file O.pbe-n-kjpaw_psl.1.0.0.UPF: wavefunction(s)  2S 2P renormalized
     Message from routine volume:
     axis vectors are left-handed
     Message from routine setup:
     using ibrav=0 with symmetry is DISCOURAGED, use correct ibrav instead

     K-points division:     npool     =       4
     R & G space division:  proc/nbgrp/npool/nimage =       2
     Subspace diagonalization in iterative solution of the eigenvalue problem:
     a serial algorithm will be used


     Parallelization info
     --------------------
     sticks:   dense  smooth     PW     G-vecs:    dense   smooth      PW
     Min        1550     618    192                42771    10819    1916
     Max        1551     619    193                42772    10820    1917
     Sum        3101    1237    385                85543    21639    3833

     Using Slab Decomposition



     bravais-lattice index     =            0
     lattice parameter (alat)  =       8.1800  a.u.
     unit-cell volume          =     273.6717 (a.u.)^3
     number of atoms/cell      =            4
     number of atomic types    =            3
     number of electrons       =        44.00
     number of Kohn-Sham states=           26
     kinetic-energy cutoff     =      70.0000  Ry
     charge density cutoff     =     700.0000  Ry
     scf convergence threshold =      1.0E-08
     mixing beta               =       0.2000
     number of iterations used =            8  local-TF  mixing
     Exchange-correlation= SLA  PW   PBX  PBC
                           (   1   4   3   4   0   0   0)

     celldm(1)=   8.180000  celldm(2)=   0.000000  celldm(3)=   0.000000
     celldm(4)=   0.000000  celldm(5)=   0.000000  celldm(6)=   0.000000

     crystal axes: (cart. coord. in units of alat)
               a(1) = (   0.500000   0.500000   1.000000 )  
               a(2) = (   0.500000   1.000000   0.500000 )  
               a(3) = (   1.000000   0.500000   0.500000 )  

     reciprocal axes: (cart. coord. in units 2 pi/alat)
               b(1) = ( -0.500000 -0.500000  1.500000 )  
               b(2) = ( -0.500000  1.500000 -0.500000 )  
               b(3) = (  1.500000 -0.500000 -0.500000 )  


     PseudoPot. # 1 for Fe read from file:
     ./pseudo/Fe.pbe-spn-kjpaw_psl.1.0.0.UPF
     MD5 check sum: fc81f059e5c5069939230b1155715ae8
     Pseudo is Projector augmented-wave + core cor, Zval = 16.0
     Generated using &quot;atomic&quot; code by A. Dal Corso  v.6.3
     Shape of augmentation charge: PSQ
     Using radial grid of 1191 points,  6 beta functions with: 
                l(1) =   0
                l(2) =   0
                l(3) =   1
                l(4) =   1
                l(5) =   2
                l(6) =   2
     Q(r) pseudized with 0 coefficients 


     PseudoPot. # 2 for Fe read from file:
     ./pseudo/Fe.pbe-spn-kjpaw_psl.1.0.0.UPF
     MD5 check sum: fc81f059e5c5069939230b1155715ae8
     Pseudo is Projector augmented-wave + core cor, Zval = 16.0
     Generated using &quot;atomic&quot; code by A. Dal Corso  v.6.3
     Shape of augmentation charge: PSQ
     Using radial grid of 1191 points,  6 beta functions with: 
                l(1) =   0
                l(2) =   0
                l(3) =   1
                l(4) =   1
                l(5) =   2
                l(6) =   2
     Q(r) pseudized with 0 coefficients 


     PseudoPot. # 3 for O  read from file:
     ./pseudo/O.pbe-n-kjpaw_psl.1.0.0.UPF
     MD5 check sum: e99d9cef9b487d1ca56f5b95ecd0fd7a
     Pseudo is Projector augmented-wave + core cor, Zval =  6.0
     Generated using &quot;atomic&quot; code by A. Dal Corso  v.6.3
     Shape of augmentation charge: PSQ
     Using radial grid of 1095 points,  4 beta functions with: 
                l(1) =   0
                l(2) =   0
                l(3) =   1
                l(4) =   1
     Q(r) pseudized with 0 coefficients 


     atomic species   valence    mass     pseudopotential
     Fe1              16.00    55.84500     Fe( 1.00)
     Fe2              16.00    55.84500     Fe( 1.00)
     O                 6.00    15.99900     O ( 1.00)

     Starting magnetic structure 
     atomic species   magnetization
     Fe1             0.600
     Fe2            -0.600
     O               0.000

     12 Sym. Ops., with inversion, found


                                    s                        frac. trans.

      isym =  1     identity                                     

 cryst.   s( 1) = (     1          0          0      )
                  (     0          1          0      )
                  (     0          0          1      )

 cart.    s( 1) = (  1.0000000  0.0000000  0.0000000 )
                  (  0.0000000  1.0000000  0.0000000 )
                  (  0.0000000  0.0000000  1.0000000 )


      isym =  2     180 deg rotation - cart. axis [1,-1,0]       

 cryst.   s( 2) = (    -1          0          0      )
                  (     0          0         -1      )
                  (     0         -1          0      )

 cart.    s( 2) = (  0.0000000 -1.0000000  0.0000000 )
                  ( -1.0000000  0.0000000  0.0000000 )
                  (  0.0000000  0.0000000 -1.0000000 )


      isym =  3     180 deg rotation - cart. axis [-1,0,1]       

 cryst.   s( 3) = (     0          0         -1      )
                  (     0         -1          0      )
                  (    -1          0          0      )

 cart.    s( 3) = (  0.0000000  0.0000000 -1.0000000 )
                  (  0.0000000 -1.0000000  0.0000000 )
                  ( -1.0000000  0.0000000  0.0000000 )


      isym =  4     180 deg rotation - cart. axis [0,1,-1]       

 cryst.   s( 4) = (     0         -1          0      )
                  (    -1          0          0      )
                  (     0          0         -1      )

 cart.    s( 4) = ( -1.0000000  0.0000000  0.0000000 )
                  (  0.0000000  0.0000000 -1.0000000 )
                  (  0.0000000 -1.0000000  0.0000000 )


      isym =  5     120 deg rotation - cart. axis [-1,-1,-1]     

 cryst.   s( 5) = (     0          1          0      )
                  (     0          0          1      )
                  (     1          0          0      )

 cart.    s( 5) = (  0.0000000  1.0000000  0.0000000 )
                  (  0.0000000  0.0000000  1.0000000 )
                  (  1.0000000  0.0000000  0.0000000 )


      isym =  6     120 deg rotation - cart. axis [1,1,1]        

 cryst.   s( 6) = (     0          0          1      )
                  (     1          0          0      )
                  (     0          1          0      )

 cart.    s( 6) = (  0.0000000  0.0000000  1.0000000 )
                  (  1.0000000  0.0000000  0.0000000 )
                  (  0.0000000  1.0000000  0.0000000 )


      isym =  7     inversion                                    

 cryst.   s( 7) = (    -1          0          0      )
                  (     0         -1          0      )
                  (     0          0         -1      )

 cart.    s( 7) = ( -1.0000000  0.0000000  0.0000000 )
                  (  0.0000000 -1.0000000  0.0000000 )
                  (  0.0000000  0.0000000 -1.0000000 )


      isym =  8     inv. 180 deg rotation - cart. axis [1,-1,0]  

 cryst.   s( 8) = (     1          0          0      )
                  (     0          0          1      )
                  (     0          1          0      )

 cart.    s( 8) = (  0.0000000  1.0000000  0.0000000 )
                  (  1.0000000  0.0000000  0.0000000 )
                  (  0.0000000  0.0000000  1.0000000 )


      isym =  9     inv. 180 deg rotation - cart. axis [-1,0,1]  

 cryst.   s( 9) = (     0          0          1      )
                  (     0          1          0      )
                  (     1          0          0      )

 cart.    s( 9) = (  0.0000000  0.0000000  1.0000000 )
                  (  0.0000000  1.0000000  0.0000000 )
                  (  1.0000000  0.0000000  0.0000000 )


      isym = 10     inv. 180 deg rotation - cart. axis [0,1,-1]  

 cryst.   s(10) = (     0          1          0      )
                  (     1          0          0      )
                  (     0          0          1      )

 cart.    s(10) = (  1.0000000  0.0000000  0.0000000 )
                  (  0.0000000  0.0000000  1.0000000 )
                  (  0.0000000  1.0000000  0.0000000 )


      isym = 11     inv. 120 deg rotation - cart. axis [-1,-1,-1]

 cryst.   s(11) = (     0         -1          0      )
                  (     0          0         -1      )
                  (    -1          0          0      )

 cart.    s(11) = (  0.0000000 -1.0000000  0.0000000 )
                  (  0.0000000  0.0000000 -1.0000000 )
                  ( -1.0000000  0.0000000  0.0000000 )


      isym = 12     inv. 120 deg rotation - cart. axis [1,1,1]   

 cryst.   s(12) = (     0          0         -1      )
                  (    -1          0          0      )
                  (     0         -1          0      )

 cart.    s(12) = (  0.0000000  0.0000000 -1.0000000 )
                  ( -1.0000000  0.0000000  0.0000000 )
                  (  0.0000000 -1.0000000  0.0000000 )


   Cartesian axes

     site n.     atom                  positions (alat units)
         1        Fe1    tau(   1) = (   0.0000000   0.0000000   0.0000000  )
         2        Fe2    tau(   2) = (   1.0000000   1.0000000   1.0000000  )
         3        O      tau(   3) = (   0.5000000   0.5000000   0.5000000  )
         4        O      tau(   4) = (   1.5000000   1.5000000   1.5000000  )

   Crystallographic axes

     site n.     atom                  positions (cryst. coord.)
         1        Fe1    tau(   1) = (  0.0000000  0.0000000  0.0000000  )
         2        Fe2    tau(   2) = (  0.5000000  0.5000000  0.5000000  )
         3        O      tau(   3) = (  0.2500000  0.2500000  0.2500000  )
         4        O      tau(   4) = (  0.7500000  0.7500000  0.7500000  )

     number of k points=    32  Marzari-Vanderbilt smearing, width (Ry)=  0.0100
                       cart. coord. in units 2pi/alat
        k(    1) = (   0.0000000   0.0000000   0.0000000), wk =   0.0046296
        k(    2) = (   0.2500000  -0.0833333  -0.0833333), wk =   0.0277778
        k(    3) = (   0.5000000  -0.1666667  -0.1666667), wk =   0.0277778
        k(    4) = (  -0.7500000   0.2500000   0.2500000), wk =   0.0138889
        k(    5) = (   0.1666667   0.1666667  -0.1666667), wk =   0.0277778
        k(    6) = (   0.4166667   0.0833333  -0.2500000), wk =   0.0555556
        k(    7) = (  -0.8333333   0.5000000   0.1666667), wk =   0.0555556
        k(    8) = (  -0.5833333   0.4166667   0.0833333), wk =   0.0555556
        k(    9) = (  -0.3333333   0.3333333  -0.0000000), wk =   0.0277778
        k(   10) = (   0.3333333   0.3333333  -0.3333333), wk =   0.0277778
        k(   11) = (  -0.9166667   0.7500000   0.0833333), wk =   0.0555556
        k(   12) = (  -0.6666667   0.6666667   0.0000000), wk =   0.0277778
        k(   13) = (  -0.5000000  -0.5000000   0.5000000), wk =   0.0138889
        k(   14) = (   0.0833333   0.0833333   0.0833333), wk =   0.0092593
        k(   15) = (   0.3333333   0.0000000   0.0000000), wk =   0.0277778
        k(   16) = (  -0.9166667   0.4166667   0.4166667), wk =   0.0277778
        k(   17) = (  -0.6666667   0.3333333   0.3333333), wk =   0.0277778
        k(   18) = (  -0.4166667   0.2500000   0.2500000), wk =   0.0277778
        k(   19) = (   0.2500000   0.2500000  -0.0833333), wk =   0.0277778
        k(   20) = (  -1.0000000   0.6666667   0.3333333), wk =   0.0555556
        k(   21) = (  -0.7500000   0.5833333   0.2500000), wk =   0.0555556
        k(   22) = (  -0.5000000   0.5000000   0.1666667), wk =   0.0555556
        k(   23) = (  -0.5833333  -0.5833333   0.7500000), wk =   0.0277778
        k(   24) = (  -0.3333333  -0.6666667   0.6666667), wk =   0.0555556
        k(   25) = (  -0.0833333  -0.7500000   0.5833333), wk =   0.0277778
        k(   26) = (  -0.4166667  -0.4166667   0.5833333), wk =   0.0277778
        k(   27) = (   0.1666667   0.1666667   0.1666667), wk =   0.0092593
        k(   28) = (  -1.0833333   0.5833333   0.5833333), wk =   0.0277778
        k(   29) = (  -0.8333333   0.5000000   0.5000000), wk =   0.0277778
        k(   30) = (  -0.6666667  -0.6666667   1.0000000), wk =   0.0277778
        k(   31) = (  -0.4166667  -0.7500000   0.9166667), wk =   0.0277778
        k(   32) = (  -0.2500000  -0.2500000  -0.2500000), wk =   0.0046296

                       cryst. coord.
        k(    1) = (   0.0000000   0.0000000   0.0000000), wk =   0.0046296
        k(    2) = (   0.0000000   0.0000000   0.1666667), wk =   0.0277778
        k(    3) = (   0.0000000   0.0000000   0.3333333), wk =   0.0277778
        k(    4) = (   0.0000000   0.0000000  -0.5000000), wk =   0.0138889
        k(    5) = (   0.0000000   0.1666667   0.1666667), wk =   0.0277778
        k(    6) = (   0.0000000   0.1666667   0.3333333), wk =   0.0555556
        k(    7) = (   0.0000000   0.1666667  -0.5000000), wk =   0.0555556
        k(    8) = (   0.0000000   0.1666667  -0.3333333), wk =   0.0555556
        k(    9) = (   0.0000000   0.1666667  -0.1666667), wk =   0.0277778
        k(   10) = (   0.0000000   0.3333333   0.3333333), wk =   0.0277778
        k(   11) = (   0.0000000   0.3333333  -0.5000000), wk =   0.0555556
        k(   12) = (   0.0000000   0.3333333  -0.3333333), wk =   0.0277778
        k(   13) = (   0.0000000  -0.5000000  -0.5000000), wk =   0.0138889
        k(   14) = (   0.1666667   0.1666667   0.1666667), wk =   0.0092593
        k(   15) = (   0.1666667   0.1666667   0.3333333), wk =   0.0277778
        k(   16) = (   0.1666667   0.1666667  -0.5000000), wk =   0.0277778
        k(   17) = (   0.1666667   0.1666667  -0.3333333), wk =   0.0277778
        k(   18) = (   0.1666667   0.1666667  -0.1666667), wk =   0.0277778
        k(   19) = (   0.1666667   0.3333333   0.3333333), wk =   0.0277778
        k(   20) = (   0.1666667   0.3333333  -0.5000000), wk =   0.0555556
        k(   21) = (   0.1666667   0.3333333  -0.3333333), wk =   0.0555556
        k(   22) = (   0.1666667   0.3333333  -0.1666667), wk =   0.0555556
        k(   23) = (   0.1666667  -0.5000000  -0.5000000), wk =   0.0277778
        k(   24) = (   0.1666667  -0.5000000  -0.3333333), wk =   0.0555556
        k(   25) = (   0.1666667  -0.5000000  -0.1666667), wk =   0.0277778
        k(   26) = (   0.1666667  -0.3333333  -0.3333333), wk =   0.0277778
        k(   27) = (   0.3333333   0.3333333   0.3333333), wk =   0.0092593
        k(   28) = (   0.3333333   0.3333333  -0.5000000), wk =   0.0277778
        k(   29) = (   0.3333333   0.3333333  -0.3333333), wk =   0.0277778
        k(   30) = (   0.3333333  -0.5000000  -0.5000000), wk =   0.0277778
        k(   31) = (   0.3333333  -0.5000000  -0.3333333), wk =   0.0277778
        k(   32) = (  -0.5000000  -0.5000000  -0.5000000), wk =   0.0046296

     Dense  grid:    85543 G-vectors     FFT dimensions: (  90,  90,  90)

     Smooth grid:    21639 G-vectors     FFT dimensions: (  54,  54,  54)

     Dynamical RAM for                 wfc:       0.54 MB

     Dynamical RAM for     wfc (w. buffer):       9.13 MB

     Dynamical RAM for           str. fact:       1.96 MB

     Dynamical RAM for           local pot:       0.00 MB

     Dynamical RAM for          nlocal pot:       1.07 MB

     Dynamical RAM for                qrad:       6.37 MB

     Dynamical RAM for          rho,v,vnew:      20.60 MB

     Dynamical RAM for               rhoin:       6.87 MB

     Dynamical RAM for            rho*nmix:      20.88 MB

     Dynamical RAM for           G-vectors:       2.53 MB

     Dynamical RAM for          h,s,v(r/c):       0.12 MB

     Dynamical RAM for          <psi|beta>:       0.02 MB

     Dynamical RAM for                 psi:       1.07 MB

     Dynamical RAM for                hpsi:       1.07 MB

     Dynamical RAM for                spsi:       1.07 MB

     Dynamical RAM for      wfcinit/wfcrot:       1.09 MB

     Dynamical RAM for           addusdens:      31.82 MB

     Dynamical RAM for          addusforce:      31.67 MB

     Dynamical RAM for         addusstress:      33.53 MB

     Estimated static dynamical RAM per process >      67.82 MB

     Estimated max dynamical RAM per process >     122.23 MB

     Estimated total dynamical RAM >     852.55 MB
     Generating pointlists ...
     new r_m :   0.2063 (alat units)  1.6871 (a.u.) for type    1
     new r_m :   0.2063 (alat units)  1.6871 (a.u.) for type    2
     new r_m :   0.2063 (alat units)  1.6871 (a.u.) for type    3

     Initial potential from superposition of free atoms

     starting charge      43.9991, renormalised to      44.0000
     Starting wfcs are   28 randomized atomic wfcs
     Checking if some PAW data can be deallocated... 
       PAW data deallocated on    6 nodes for type:  1
       PAW data deallocated on    6 nodes for type:  2
       PAW data deallocated on    4 nodes for type:  3

     total cpu time spent up to now is        3.6 secs

     per-process dynamical memory:   103.4 Mb

     Self-consistent Calculation

     iteration #  1     ecut=    70.00 Ry     beta= 0.20
     Davidson diagonalization with overlap

---- Real-time Memory Report at c_bands before calling an iterative solver
           170 MiB given to the printing process from OS
           101 MiB allocation reported by mallinfo(arena+hblkhd)
         13996 MiB available memory on the node where the printing process lives
------------------
     ethr =  1.00E-02,  avg # of iterations =  2.0

     total cpu time spent up to now is        7.5 secs

     total energy              =    -740.94630978 Ry
     estimated scf accuracy    <       2.75996124 Ry

     total magnetization       =     0.01 Bohr mag/cell
     absolute magnetization    =     8.65 Bohr mag/cell

     iteration #  2     ecut=    70.00 Ry     beta= 0.20
     Davidson diagonalization with overlap

---- Real-time Memory Report at c_bands before calling an iterative solver
           198 MiB given to the printing process from OS
           119 MiB allocation reported by mallinfo(arena+hblkhd)
         13913 MiB available memory on the node where the printing process lives
------------------
     ethr =  6.27E-03,  avg # of iterations =  1.4

     negative rho (up, down):  1.971E-04 1.969E-04

     total cpu time spent up to now is       10.2 secs

     total energy              =    -741.45633428 Ry
     estimated scf accuracy    <       1.52391535 Ry

     total magnetization       =     0.01 Bohr mag/cell
     absolute magnetization    =     8.23 Bohr mag/cell

     iteration #  3     ecut=    70.00 Ry     beta= 0.20
     Davidson diagonalization with overlap

---- Real-time Memory Report at c_bands before calling an iterative solver
           199 MiB given to the printing process from OS
           120 MiB allocation reported by mallinfo(arena+hblkhd)
         13872 MiB available memory on the node where the printing process lives
------------------
     ethr =  3.46E-03,  avg # of iterations =  2.0

     negative rho (up, down):  4.439E-04 4.277E-04

     total cpu time spent up to now is       13.2 secs

     total energy              =    -741.76311095 Ry
     estimated scf accuracy    <       0.26124981 Ry

     total magnetization       =    -0.03 Bohr mag/cell
     absolute magnetization    =     7.53 Bohr mag/cell

     iteration #  4     ecut=    70.00 Ry     beta= 0.20
     Davidson diagonalization with overlap

---- Real-time Memory Report at c_bands before calling an iterative solver
           199 MiB given to the printing process from OS
           121 MiB allocation reported by mallinfo(arena+hblkhd)
         13866 MiB available memory on the node where the printing process lives
------------------
     ethr =  5.94E-04,  avg # of iterations =  6.0

     negative rho (up, down):  3.058E-04 3.041E-04

     total cpu time spent up to now is       16.8 secs

     total energy              =    -741.80020320 Ry
     estimated scf accuracy    <       0.27687529 Ry

     total magnetization       =     0.08 Bohr mag/cell
     absolute magnetization    =     6.92 Bohr mag/cell

     iteration #  5     ecut=    70.00 Ry     beta= 0.20
     Davidson diagonalization with overlap

---- Real-time Memory Report at c_bands before calling an iterative solver
           200 MiB given to the printing process from OS
           122 MiB allocation reported by mallinfo(arena+hblkhd)
         13877 MiB available memory on the node where the printing process lives
------------------
     ethr =  5.94E-04,  avg # of iterations =  1.3

     negative rho (up, down):  2.974E-04 2.946E-04

     total cpu time spent up to now is       19.5 secs

     total energy              =    -741.80357227 Ry
     estimated scf accuracy    <       0.07071959 Ry

     total magnetization       =     0.01 Bohr mag/cell
     absolute magnetization    =     7.12 Bohr mag/cell

     iteration #  6     ecut=    70.00 Ry     beta= 0.20
     Davidson diagonalization with overlap

---- Real-time Memory Report at c_bands before calling an iterative solver
           201 MiB given to the printing process from OS
           122 MiB allocation reported by mallinfo(arena+hblkhd)
         13870 MiB available memory on the node where the printing process lives
------------------
     ethr =  1.61E-04,  avg # of iterations =  2.7

     negative rho (up, down):  3.144E-04 3.131E-04

     total cpu time spent up to now is       22.4 secs

     total energy              =    -741.81733223 Ry
     estimated scf accuracy    <       0.01109117 Ry

     total magnetization       =     0.04 Bohr mag/cell
     absolute magnetization    =     7.15 Bohr mag/cell

     iteration #  7     ecut=    70.00 Ry     beta= 0.20
     Davidson diagonalization with overlap

---- Real-time Memory Report at c_bands before calling an iterative solver
           201 MiB given to the printing process from OS
           123 MiB allocation reported by mallinfo(arena+hblkhd)
         13891 MiB available memory on the node where the printing process lives
------------------
     ethr =  2.52E-05,  avg # of iterations =  3.3

     negative rho (up, down):  2.967E-04 2.958E-04

     total cpu time spent up to now is       25.4 secs

     total energy              =    -741.81391225 Ry
     estimated scf accuracy    <       0.01957928 Ry

     total magnetization       =     0.00 Bohr mag/cell
     absolute magnetization    =     7.09 Bohr mag/cell

     iteration #  8     ecut=    70.00 Ry     beta= 0.20
     Davidson diagonalization with overlap

---- Real-time Memory Report at c_bands before calling an iterative solver
           202 MiB given to the printing process from OS
           124 MiB allocation reported by mallinfo(arena+hblkhd)
         13871 MiB available memory on the node where the printing process lives
------------------
     ethr =  2.52E-05,  avg # of iterations =  2.2

     negative rho (up, down):  2.741E-04 2.733E-04

     total cpu time spent up to now is       28.2 secs

     total energy              =    -741.81324849 Ry
     estimated scf accuracy    <       0.00465979 Ry

     total magnetization       =    -0.00 Bohr mag/cell
     absolute magnetization    =     7.14 Bohr mag/cell

     iteration #  9     ecut=    70.00 Ry     beta= 0.20
     Davidson diagonalization with overlap

---- Real-time Memory Report at c_bands before calling an iterative solver
           203 MiB given to the printing process from OS
           124 MiB allocation reported by mallinfo(arena+hblkhd)
         13874 MiB available memory on the node where the printing process lives
------------------
     ethr =  1.06E-05,  avg # of iterations =  5.2

     negative rho (up, down):  2.754E-04 2.746E-04

     total cpu time spent up to now is       31.7 secs

     total energy              =    -741.81616993 Ry
     estimated scf accuracy    <       0.00268401 Ry

     total magnetization       =    -0.00 Bohr mag/cell
     absolute magnetization    =     7.20 Bohr mag/cell

     iteration # 10     ecut=    70.00 Ry     beta= 0.20
     Davidson diagonalization with overlap

---- Real-time Memory Report at c_bands before calling an iterative solver
           203 MiB given to the printing process from OS
           125 MiB allocation reported by mallinfo(arena+hblkhd)
         13879 MiB available memory on the node where the printing process lives
------------------
     ethr =  6.10E-06,  avg # of iterations =  1.2

     negative rho (up, down):  2.636E-04 2.642E-04

     total cpu time spent up to now is       34.3 secs

     total energy              =    -741.81466806 Ry
     estimated scf accuracy    <       0.00271681 Ry

     total magnetization       =    -0.00 Bohr mag/cell
     absolute magnetization    =     7.20 Bohr mag/cell

     iteration # 11     ecut=    70.00 Ry     beta= 0.20
     Davidson diagonalization with overlap

---- Real-time Memory Report at c_bands before calling an iterative solver
           203 MiB given to the printing process from OS
           125 MiB allocation reported by mallinfo(arena+hblkhd)
         13872 MiB available memory on the node where the printing process lives
------------------
     ethr =  6.10E-06,  avg # of iterations =  4.8

     negative rho (up, down):  2.673E-04 2.677E-04

     total cpu time spent up to now is       37.7 secs

     total energy              =    -741.81594400 Ry
     estimated scf accuracy    <       0.00042436 Ry

     total magnetization       =     0.01 Bohr mag/cell
     absolute magnetization    =     7.17 Bohr mag/cell

     iteration # 12     ecut=    70.00 Ry     beta= 0.20
     Davidson diagonalization with overlap

---- Real-time Memory Report at c_bands before calling an iterative solver
           203 MiB given to the printing process from OS
           125 MiB allocation reported by mallinfo(arena+hblkhd)
         13879 MiB available memory on the node where the printing process lives
------------------
     ethr =  9.64E-07,  avg # of iterations =  3.4

     negative rho (up, down):  2.727E-04 2.728E-04

     total cpu time spent up to now is       40.6 secs

     total energy              =    -741.81582913 Ry
     estimated scf accuracy    <       0.00036283 Ry

     total magnetization       =     0.00 Bohr mag/cell
     absolute magnetization    =     7.17 Bohr mag/cell

     iteration # 13     ecut=    70.00 Ry     beta= 0.20
     Davidson diagonalization with overlap

---- Real-time Memory Report at c_bands before calling an iterative solver
           203 MiB given to the printing process from OS
           125 MiB allocation reported by mallinfo(arena+hblkhd)
         13871 MiB available memory on the node where the printing process lives
------------------
     ethr =  8.25E-07,  avg # of iterations =  2.0

     negative rho (up, down):  2.708E-04 2.711E-04

     total cpu time spent up to now is       43.4 secs

     total energy              =    -741.81592156 Ry
     estimated scf accuracy    <       0.00023302 Ry

     total magnetization       =     0.00 Bohr mag/cell
     absolute magnetization    =     7.17 Bohr mag/cell

     iteration # 14     ecut=    70.00 Ry     beta= 0.20
     Davidson diagonalization with overlap

---- Real-time Memory Report at c_bands before calling an iterative solver
           203 MiB given to the printing process from OS
           125 MiB allocation reported by mallinfo(arena+hblkhd)
         13832 MiB available memory on the node where the printing process lives
------------------
     ethr =  5.30E-07,  avg # of iterations =  2.4

     negative rho (up, down):  2.670E-04 2.676E-04

     total cpu time spent up to now is       46.3 secs

     total energy              =    -741.81601726 Ry
     estimated scf accuracy    <       0.00049431 Ry

     total magnetization       =     0.00 Bohr mag/cell
     absolute magnetization    =     7.16 Bohr mag/cell

     iteration # 15     ecut=    70.00 Ry     beta= 0.20
     Davidson diagonalization with overlap

---- Real-time Memory Report at c_bands before calling an iterative solver
           203 MiB given to the printing process from OS
           125 MiB allocation reported by mallinfo(arena+hblkhd)
         13861 MiB available memory on the node where the printing process lives
------------------
     ethr =  5.30E-07,  avg # of iterations =  1.4

     negative rho (up, down):  2.670E-04 2.676E-04

     total cpu time spent up to now is       48.9 secs

     total energy              =    -741.81600556 Ry
     estimated scf accuracy    <       0.00057242 Ry

     total magnetization       =     0.00 Bohr mag/cell
     absolute magnetization    =     7.16 Bohr mag/cell

     iteration # 16     ecut=    70.00 Ry     beta= 0.20
     Davidson diagonalization with overlap

---- Real-time Memory Report at c_bands before calling an iterative solver
           203 MiB given to the printing process from OS
           125 MiB allocation reported by mallinfo(arena+hblkhd)
         13897 MiB available memory on the node where the printing process lives
------------------
     ethr =  5.30E-07,  avg # of iterations =  1.1

     negative rho (up, down):  2.674E-04 2.679E-04

     total cpu time spent up to now is       51.5 secs

     total energy              =    -741.81598394 Ry
     estimated scf accuracy    <       0.00044111 Ry

     total magnetization       =     0.00 Bohr mag/cell
     absolute magnetization    =     7.16 Bohr mag/cell

     iteration # 17     ecut=    70.00 Ry     beta= 0.20
     Davidson diagonalization with overlap

---- Real-time Memory Report at c_bands before calling an iterative solver
           203 MiB given to the printing process from OS
           125 MiB allocation reported by mallinfo(arena+hblkhd)
         13820 MiB available memory on the node where the printing process lives
------------------
     ethr =  5.30E-07,  avg # of iterations =  1.0

     negative rho (up, down):  2.666E-04 2.673E-04

     total cpu time spent up to now is       54.2 secs

     total energy              =    -741.81602460 Ry
     estimated scf accuracy    <       0.00033593 Ry

     total magnetization       =     0.00 Bohr mag/cell
     absolute magnetization    =     7.16 Bohr mag/cell

     iteration # 18     ecut=    70.00 Ry     beta= 0.20
     Davidson diagonalization with overlap

---- Real-time Memory Report at c_bands before calling an iterative solver
           203 MiB given to the printing process from OS
           125 MiB allocation reported by mallinfo(arena+hblkhd)
         13859 MiB available memory on the node where the printing process lives
------------------
     ethr =  5.30E-07,  avg # of iterations =  1.0

     negative rho (up, down):  2.702E-04 2.702E-04

     total cpu time spent up to now is       56.9 secs

     total energy              =    -741.81582002 Ry
     estimated scf accuracy    <       0.00052099 Ry

     total magnetization       =     0.00 Bohr mag/cell
     absolute magnetization    =     7.16 Bohr mag/cell

     iteration # 19     ecut=    70.00 Ry     beta= 0.20
     Davidson diagonalization with overlap

---- Real-time Memory Report at c_bands before calling an iterative solver
           203 MiB given to the printing process from OS
           125 MiB allocation reported by mallinfo(arena+hblkhd)
         13811 MiB available memory on the node where the printing process lives
------------------
     ethr =  5.30E-07,  avg # of iterations =  3.7

     negative rho (up, down):  2.708E-04 2.708E-04

     total cpu time spent up to now is       59.9 secs

     total energy              =    -741.81589107 Ry
     estimated scf accuracy    <       0.00002159 Ry

     total magnetization       =     0.00 Bohr mag/cell
     absolute magnetization    =     7.17 Bohr mag/cell

     iteration # 20     ecut=    70.00 Ry     beta= 0.20
     Davidson diagonalization with overlap

---- Real-time Memory Report at c_bands before calling an iterative solver
           203 MiB given to the printing process from OS
           125 MiB allocation reported by mallinfo(arena+hblkhd)
         13898 MiB available memory on the node where the printing process lives
------------------
     ethr =  4.91E-08,  avg # of iterations =  5.2

     negative rho (up, down):  2.703E-04 2.703E-04

     total cpu time spent up to now is       63.5 secs

     total energy              =    -741.81591674 Ry
     estimated scf accuracy    <       0.00002183 Ry

     total magnetization       =     0.00 Bohr mag/cell
     absolute magnetization    =     7.18 Bohr mag/cell

     iteration # 21     ecut=    70.00 Ry     beta= 0.20
     Davidson diagonalization with overlap

---- Real-time Memory Report at c_bands before calling an iterative solver
           203 MiB given to the printing process from OS
           125 MiB allocation reported by mallinfo(arena+hblkhd)
         13858 MiB available memory on the node where the printing process lives
------------------
     ethr =  4.91E-08,  avg # of iterations =  2.0

     negative rho (up, down):  2.703E-04 2.703E-04

     total cpu time spent up to now is       66.3 secs

     total energy              =    -741.81591971 Ry
     estimated scf accuracy    <       0.00000061 Ry

     total magnetization       =    -0.00 Bohr mag/cell
     absolute magnetization    =     7.17 Bohr mag/cell

     iteration # 22     ecut=    70.00 Ry     beta= 0.20
     Davidson diagonalization with overlap

---- Real-time Memory Report at c_bands before calling an iterative solver
           203 MiB given to the printing process from OS
           125 MiB allocation reported by mallinfo(arena+hblkhd)
         13824 MiB available memory on the node where the printing process lives
------------------
     ethr =  1.39E-09,  avg # of iterations =  6.2

     negative rho (up, down):  2.706E-04 2.706E-04

     total cpu time spent up to now is       70.5 secs

     total energy              =    -741.81592065 Ry
     estimated scf accuracy    <       0.00000218 Ry

     total magnetization       =    -0.00 Bohr mag/cell
     absolute magnetization    =     7.17 Bohr mag/cell

     iteration # 23     ecut=    70.00 Ry     beta= 0.20
     Davidson diagonalization with overlap

---- Real-time Memory Report at c_bands before calling an iterative solver
           203 MiB given to the printing process from OS
           125 MiB allocation reported by mallinfo(arena+hblkhd)
         13815 MiB available memory on the node where the printing process lives
------------------
     ethr =  1.39E-09,  avg # of iterations =  5.0

     negative rho (up, down):  2.706E-04 2.706E-04

     total cpu time spent up to now is       74.0 secs

     total energy              =    -741.81592118 Ry
     estimated scf accuracy    <       0.00000010 Ry

     total magnetization       =     0.00 Bohr mag/cell
     absolute magnetization    =     7.17 Bohr mag/cell

     iteration # 24     ecut=    70.00 Ry     beta= 0.20
     Davidson diagonalization with overlap

---- Real-time Memory Report at c_bands before calling an iterative solver
           203 MiB given to the printing process from OS
           125 MiB allocation reported by mallinfo(arena+hblkhd)
         13855 MiB available memory on the node where the printing process lives
------------------
     ethr =  2.31E-10,  avg # of iterations =  2.4

     negative rho (up, down):  2.705E-04 2.705E-04

     total cpu time spent up to now is       76.8 secs

     total energy              =    -741.81592119 Ry
     estimated scf accuracy    <       0.00000007 Ry

     total magnetization       =    -0.00 Bohr mag/cell
     absolute magnetization    =     7.17 Bohr mag/cell

     iteration # 25     ecut=    70.00 Ry     beta= 0.20
     Davidson diagonalization with overlap

---- Real-time Memory Report at c_bands before calling an iterative solver
           203 MiB given to the printing process from OS
           125 MiB allocation reported by mallinfo(arena+hblkhd)
         13849 MiB available memory on the node where the printing process lives
------------------
     ethr =  1.54E-10,  avg # of iterations =  2.0

     negative rho (up, down):  2.704E-04 2.704E-04

     total cpu time spent up to now is       79.6 secs

     total energy              =    -741.81592120 Ry
     estimated scf accuracy    <       0.00000009 Ry

     total magnetization       =     0.00 Bohr mag/cell
     absolute magnetization    =     7.17 Bohr mag/cell

     iteration # 26     ecut=    70.00 Ry     beta= 0.20
     Davidson diagonalization with overlap

---- Real-time Memory Report at c_bands before calling an iterative solver
           203 MiB given to the printing process from OS
           125 MiB allocation reported by mallinfo(arena+hblkhd)
         13849 MiB available memory on the node where the printing process lives
------------------
     ethr =  1.54E-10,  avg # of iterations =  1.1

     negative rho (up, down):  2.704E-04 2.704E-04

     total cpu time spent up to now is       82.6 secs

     total energy              =    -741.81592119 Ry
     estimated scf accuracy    <       0.00000006 Ry

     total magnetization       =     0.00 Bohr mag/cell
     absolute magnetization    =     7.17 Bohr mag/cell

     iteration # 27     ecut=    70.00 Ry     beta= 0.20
     Davidson diagonalization with overlap

---- Real-time Memory Report at c_bands before calling an iterative solver
           203 MiB given to the printing process from OS
           125 MiB allocation reported by mallinfo(arena+hblkhd)
         13847 MiB available memory on the node where the printing process lives
------------------
     ethr =  1.45E-10,  avg # of iterations =  1.2

     negative rho (up, down):  2.703E-04 2.703E-04

     total cpu time spent up to now is       85.6 secs

     total energy              =    -741.81592118 Ry
     estimated scf accuracy    <       0.00000004 Ry

     total magnetization       =    -0.00 Bohr mag/cell
     absolute magnetization    =     7.17 Bohr mag/cell

     iteration # 28     ecut=    70.00 Ry     beta= 0.20
     Davidson diagonalization with overlap

---- Real-time Memory Report at c_bands before calling an iterative solver
           203 MiB given to the printing process from OS
           125 MiB allocation reported by mallinfo(arena+hblkhd)
         13828 MiB available memory on the node where the printing process lives
------------------
     ethr =  9.42E-11,  avg # of iterations =  2.0

     negative rho (up, down):  2.704E-04 2.704E-04

     Magnetic moment per site  (integrated on atomic sphere of radius R)
     atom   1 (R=0.206)  charge= 13.5750  magn=  3.3065
     atom   2 (R=0.206)  charge= 13.5750  magn= -3.3065
     atom   3 (R=0.206)  charge=  5.8358  magn=  0.0000
     atom   4 (R=0.206)  charge=  5.8358  magn=  0.0000

     total cpu time spent up to now is       88.3 secs

     End of self-consistent calculation

 ------ SPIN UP ------------


          k = 0.0000 0.0000 0.0000 (  2713 PWs)   bands (ev):

   -75.4246 -71.4503 -41.5529 -41.4317 -41.4317 -37.6090 -37.5773 -37.5773
    -6.2762  -5.1308   5.8475   8.2076   8.2076  10.5763  10.5791  10.5791
    11.0069  11.0252  11.0252  12.0894  12.0894  14.1299  14.1299  14.4751
    14.5765  16.1718

     occupation numbers 
     1.0000   1.0000   1.0000   1.0000   1.0000   1.0000   1.0000   1.0000
     1.0000   1.0000   1.0000   1.0000   1.0000   1.0000   1.0000   1.0000
     1.0000   1.0000   1.0000   1.0000   1.0000   0.8863   0.8863   0.0007
     0.0000   0.0000

          k = 0.2500-0.0833-0.0833 (  2719 PWs)   bands (ev):

   -75.4237 -71.4493 -41.5516 -41.4412 -41.4341 -37.6074 -37.5892 -37.5803
    -6.0418  -5.1092   6.2813   8.0393   8.2887   8.8474   9.8684   9.8918
    10.9554  11.4022  11.4435  12.2815  12.5314  14.0128  14.3052  14.5411
    15.5181  16.0915

     occupation numbers 
     1.0000   1.0000   1.0000   1.0000   1.0000   1.0000   1.0000   1.0000
     1.0000   1.0000   1.0000   1.0000   1.0000   1.0000   1.0000   1.0000
     1.0000   1.0000   1.0000   1.0000   1.0000   1.0796   0.1034   0.0000
     0.0000   0.0000

          k = 0.5000-0.1667-0.1667 (  2713 PWs)   bands (ev):

   -75.4220 -71.4473 -41.5487 -41.4602 -41.4387 -37.6129 -37.6037 -37.5859
    -5.5264  -5.0647   7.0852   7.1834   7.6492   8.4017   8.8749   9.2805
    10.8278  11.5518  11.7357  12.4939  12.6880  13.7242  14.6643  14.8697
    15.6359  15.9675

     occupation numbers 
     1.0000   1.0000   1.0000   1.0000   1.0000   1.0000   1.0000   1.0000
     1.0000   1.0000   1.0000   1.0000   1.0000   1.0000   1.0000   1.0000
     1.0000   1.0000   1.0000   1.0000   1.0000   1.0000   0.0000   0.0000
     0.0000   0.0000

          k =-0.7500 0.2500 0.2500 (  2696 PWs)   bands (ev):

   -75.4211 -71.4461 -41.5471 -41.4695 -41.4411 -37.6244 -37.6017 -37.5888
    -5.1510  -5.1339   6.6945   6.9513   7.8539   8.4066   8.4121   9.0993
    10.7513  11.5603  11.7836  12.6872  12.8850  13.5561  14.8232  15.0443
    15.9035  15.9193

     occupation numbers 
     1.0000   1.0000   1.0000   1.0000   1.0000   1.0000   1.0000   1.0000
     1.0000   1.0000   1.0000   1.0000   1.0000   1.0000   1.0000   1.0000
     1.0000   1.0000   1.0000   1.0000   1.0000   1.0000   0.0000   0.0000
     0.0000   0.0000

          k = 0.1667 0.1667-0.1667 (  2710 PWs)   bands (ev):

   -75.4237 -71.4493 -41.5514 -41.4411 -41.4342 -37.6072 -37.5890 -37.5803
    -6.0189  -5.1378   6.3489   8.0471   8.3882   8.8358   9.6768   9.7013
    11.0269  11.3314  11.3467  12.6210  12.6340  13.9384  14.3382  14.5549
    15.8312  15.9166

     occupation numbers 
     1.0000   1.0000   1.0000   1.0000   1.0000   1.0000   1.0000   1.0000
     1.0000   1.0000   1.0000   1.0000   1.0000   1.0000   1.0000   1.0000
     1.0000   1.0000   1.0000   1.0000   1.0000   1.0335   0.0497   0.0000
     0.0000   0.0000

          k = 0.4167 0.0833-0.2500 (  2709 PWs)   bands (ev):

   -75.4224 -71.4478 -41.5493 -41.4536 -41.4395 -37.6046 -37.6045 -37.5869
    -5.6344  -5.1073   6.9333   7.4380   8.0319   8.3882   8.8861   9.2320
    11.0662  11.5352  11.6144  12.3073  12.6914  14.1552  14.2655  14.8276
    15.6201  15.9562

     occupation numbers 
     1.0000   1.0000   1.0000   1.0000   1.0000   1.0000   1.0000   1.0000
     1.0000   1.0000   1.0000   1.0000   1.0000   1.0000   1.0000   1.0000
     1.0000   1.0000   1.0000   1.0000   1.0000   0.7661   0.2160   0.0000
     0.0000   0.0000

          k =-0.8333 0.5000 0.1667 (  2706 PWs)   bands (ev):

   -75.4212 -71.4462 -41.5471 -41.4648 -41.4460 -37.6185 -37.6018 -37.5949
    -5.2223  -5.0645   6.8855   7.0079   7.8522   8.3537   8.5141   8.6101
    11.0655  11.5980  11.7251  12.4514  12.6517  14.0277  14.6192  14.9694
    15.8137  16.0042

     occupation numbers 
     1.0000   1.0000   1.0000   1.0000   1.0000   1.0000   1.0000   1.0000
     1.0000   1.0000   1.0000   1.0000   1.0000   1.0000   1.0000   1.0000
     1.0000   1.0000   1.0000   1.0000   1.0000   1.0832   0.0000   0.0000
     0.0000   0.0000

          k =-0.5833 0.4167 0.0833 (  2707 PWs)   bands (ev):

   -75.4212 -71.4462 -41.5472 -41.4648 -41.4460 -37.6185 -37.6018 -37.5949
    -5.2331  -5.0552   6.7396   7.4090   7.8315   8.2823   8.3754   8.5184
    11.1045  11.6021  11.7505  12.4269  12.6537  14.0069  14.6254  14.9711
    15.6922  16.2223

     occupation numbers 
     1.0000   1.0000   1.0000   1.0000   1.0000   1.0000   1.0000   1.0000
     1.0000   1.0000   1.0000   1.0000   1.0000   1.0000   1.0000   1.0000
     1.0000   1.0000   1.0000   1.0000   1.0000   1.0772   0.0000   0.0000
     0.0000   0.0000

          k =-0.3333 0.3333-0.0000 (  2712 PWs)   bands (ev):

   -75.4224 -71.4478 -41.5494 -41.4536 -41.4395 -37.6046 -37.6046 -37.5869
    -5.6735  -5.0647   6.9908   7.5684   7.8416   8.3743   8.8585   9.1865
    11.0967  11.5933  11.6370  12.2393  12.7529  14.1566  14.2426  14.8221
    15.6869  16.0238

     occupation numbers 
     1.0000   1.0000   1.0000   1.0000   1.0000   1.0000   1.0000   1.0000
     1.0000   1.0000   1.0000   1.0000   1.0000   1.0000   1.0000   1.0000
     1.0000   1.0000   1.0000   1.0000   1.0000   0.7587   0.3078   0.0000
     0.0000   0.0000

          k = 0.3333 0.3333-0.3333 (  2699 PWs)   bands (ev):

   -75.4220 -71.4472 -41.5486 -41.4600 -41.4388 -37.6125 -37.6035 -37.5859
    -5.4504  -5.1450   6.7295   7.0664   8.2718   8.4843   8.8203   9.1700
    10.7818  11.5429  11.5573  12.7085  12.8086  13.7708  14.6852  14.8256
    15.9890  16.0559

     occupation numbers 
     1.0000   1.0000   1.0000   1.0000   1.0000   1.0000   1.0000   1.0000
     1.0000   1.0000   1.0000   1.0000   1.0000   1.0000   1.0000   1.0000
     1.0000   1.0000   1.0000   1.0000   1.0000   1.0003   0.0000   0.0000
     0.0000   0.0000

          k =-0.9167 0.7500 0.0833 (  2704 PWs)   bands (ev):

   -75.4212 -71.4462 -41.5472 -41.4649 -41.4459 -37.6185 -37.6017 -37.5948
    -5.1835  -5.1008   6.3466   7.2122   8.1667   8.3323   8.4221   8.9413
    10.9863  11.5103  11.6189  12.5782  12.7245  14.0828  14.6204  14.9669
    15.8416  16.2299

     occupation numbers 
     1.0000   1.0000   1.0000   1.0000   1.0000   1.0000   1.0000   1.0000
     1.0000   1.0000   1.0000   1.0000   1.0000   1.0000   1.0000   1.0000
     1.0000   1.0000   1.0000   1.0000   1.0000   1.0357   0.0000   0.0000
     0.0000   0.0000

          k =-0.6667 0.6667 0.0000 (  2718 PWs)   bands (ev):

   -75.4208 -71.4458 -41.5466 -41.4585 -41.4585 -37.6105 -37.6105 -37.6010
    -5.0647  -5.0646   7.0011   7.1148   7.6216   7.8887   8.3710   8.5593
    11.2103  11.5989  11.6480  12.5078  12.7148  14.5052  14.5451  14.7107
    15.9190  16.0566

     occupation numbers 
     1.0000   1.0000   1.0000   1.0000   1.0000   1.0000   1.0000   1.0000
     1.0000   1.0000   1.0000   1.0000   1.0000   1.0000   1.0000   1.0000
     1.0000   1.0000   1.0000   1.0000   1.0000   0.0002   0.0000   0.0000
     0.0000   0.0000

          k =-0.5000-0.5000 0.5000 (  2712 PWs)   bands (ev):

   -75.4212 -71.4463 -41.5473 -41.4697 -41.4412 -37.6246 -37.6017 -37.5889
    -5.1455  -5.1307   5.8587   7.0873   8.2308   8.2355   9.4448   9.4460
    10.2810  11.5459  11.6395  12.4809  12.6853  13.8597  14.8377  15.0384
    16.2760  16.3672

     occupation numbers 
     1.0000   1.0000   1.0000   1.0000   1.0000   1.0000   1.0000   1.0000
     1.0000   1.0000   1.0000   1.0000   1.0000   1.0000   1.0000   1.0000
     1.0000   1.0000   1.0000   1.0000   1.0000   1.0057   0.0000   0.0000
     0.0000   0.0000

          k = 0.0833 0.0833 0.0833 (  2731 PWs)   bands (ev):

   -75.4246 -71.4504 -41.5529 -41.4319 -41.4319 -37.6092 -37.5776 -37.5776
    -6.2088  -5.2192   6.0742   8.2807   8.2807   9.9439  10.2941  10.2941
    11.0430  11.0430  11.1442  12.3610  12.3610  14.1076  14.1076  14.4289
    15.0379  16.0900

     occupation numbers 
     1.0000   1.0000   1.0000   1.0000   1.0000   1.0000   1.0000   1.0000
     1.0000   1.0000   1.0000   1.0000   1.0000   1.0000   1.0000   1.0000
     1.0000   1.0000   1.0000   1.0000   1.0000   0.9703   0.9703   0.0037
     0.0000   0.0000

          k = 0.3333 0.0000 0.0000 (  2706 PWs)   bands (ev):

   -75.4237 -71.4493 -41.5513 -41.4412 -41.4341 -37.6072 -37.5891 -37.5802
    -5.9511  -5.2188   6.5008   8.0899   8.3115   8.5395   9.8841   9.9057
    10.8620  11.4861  11.5682  12.1711  12.2639  14.0873  14.2810  14.5259
    15.2278  16.1789

     occupation numbers 
     1.0000   1.0000   1.0000   1.0000   1.0000   1.0000   1.0000   1.0000
     1.0000   1.0000   1.0000   1.0000   1.0000   1.0000   1.0000   1.0000
     1.0000   1.0000   1.0000   1.0000   1.0000   1.0262   0.1649   0.0001
     0.0000   0.0000

          k =-0.9167 0.4167 0.4167 (  2695 PWs)   bands (ev):

   -75.4220 -71.4472 -41.5484 -41.4600 -41.4387 -37.6126 -37.6035 -37.5859
    -5.4742  -5.1173   6.7104   7.1247   7.9925   8.3275   9.2581   9.4456
    10.6552  11.5619  11.8141  12.2263  12.4571  13.8512  14.6577  14.8845
    15.4211  16.1407

     occupation numbers 
     1.0000   1.0000   1.0000   1.0000   1.0000   1.0000   1.0000   1.0000
     1.0000   1.0000   1.0000   1.0000   1.0000   1.0000   1.0000   1.0000
     1.0000   1.0000   1.0000   1.0000   1.0000   1.0045   0.0000   0.0000
     0.0000   0.0000

          k =-0.6667 0.3333 0.3333 (  2699 PWs)   bands (ev):

   -75.4212 -71.4462 -41.5471 -41.4696 -41.4411 -37.6245 -37.6017 -37.5888
    -5.1496  -5.1331   6.3501   7.0778   8.0241   8.3549   8.5877   9.1948
    10.6801  11.5575  11.7492  12.6718  12.7803  13.6391  14.8272  15.0430
    15.9890  16.0134

     occupation numbers 
     1.0000   1.0000   1.0000   1.0000   1.0000   1.0000   1.0000   1.0000
     1.0000   1.0000   1.0000   1.0000   1.0000   1.0000   1.0000   1.0000
     1.0000   1.0000   1.0000   1.0000   1.0000   1.0000   0.0000   0.0000
     0.0000   0.0000

          k =-0.4167 0.2500 0.2500 (  2706 PWs)   bands (ev):

   -75.4220 -71.4472 -41.5487 -41.4601 -41.4387 -37.6127 -37.6037 -37.5858
    -5.5179  -5.0751   7.0146   7.2433   7.7416   8.4952   8.7211   9.1317
    10.8738  11.5443  11.6281  12.7528  12.8137  13.6824  14.6800  14.8448
    15.8842  15.9626

     occupation numbers 
     1.0000   1.0000   1.0000   1.0000   1.0000   1.0000   1.0000   1.0000
     1.0000   1.0000   1.0000   1.0000   1.0000   1.0000   1.0000   1.0000
     1.0000   1.0000   1.0000   1.0000   1.0000   1.0000   0.0000   0.0000
     0.0000   0.0000

          k = 0.2500 0.2500-0.0833 (  2719 PWs)   bands (ev):

   -75.4237 -71.4493 -41.5515 -41.4412 -41.4343 -37.6075 -37.5891 -37.5805
    -5.8869  -5.2944   6.6758   8.0687   8.5124   8.5606   9.4093   9.5490
    11.0218  11.2891  11.4734  12.4328  12.8150  13.9312  14.3517  14.5331
    15.6376  15.8267

     occupation numbers 
     1.0000   1.0000   1.0000   1.0000   1.0000   1.0000   1.0000   1.0000
     1.0000   1.0000   1.0000   1.0000   1.0000   1.0000   1.0000   1.0000
     1.0000   1.0000   1.0000   1.0000   1.0000   1.0295   0.0357   0.0001
     0.0000   0.0000

          k =-1.0000 0.6667 0.3333 (  2701 PWs)   bands (ev):

   -75.4224 -71.4477 -41.5492 -41.4535 -41.4394 -37.6045 -37.6044 -37.5868
    -5.5264  -5.2222   6.8816   7.1968   8.3964   8.4880   8.8173   9.3063
    11.0253  11.3777  11.6644  12.2761  12.6493  14.1711  14.2951  14.8453
    15.4933  15.9069

     occupation numbers 
     1.0000   1.0000   1.0000   1.0000   1.0000   1.0000   1.0000   1.0000
     1.0000   1.0000   1.0000   1.0000   1.0000   1.0000   1.0000   1.0000
     1.0000   1.0000   1.0000   1.0000   1.0000   0.6818   0.1266   0.0000
     0.0000   0.0000

          k =-0.7500 0.5833 0.2500 (  2705 PWs)   bands (ev):

   -75.4212 -71.4462 -41.5471 -41.4648 -41.4460 -37.6185 -37.6017 -37.5949
    -5.1897  -5.0943   6.5869   6.9710   7.9646   8.4123   8.5384   8.9273
    10.9733  11.5679  11.6226  12.5967  12.6329  14.0775  14.6193  14.9653
    15.8798  15.9727

     occupation numbers 
     1.0000   1.0000   1.0000   1.0000   1.0000   1.0000   1.0000   1.0000
     1.0000   1.0000   1.0000   1.0000   1.0000   1.0000   1.0000   1.0000
     1.0000   1.0000   1.0000   1.0000   1.0000   1.0458   0.0000   0.0000
     0.0000   0.0000

          k =-0.5000 0.5000 0.1667 (  2703 PWs)   bands (ev):

   -75.4212 -71.4462 -41.5472 -41.4648 -41.4459 -37.6184 -37.6017 -37.5948
    -5.2188  -5.0683   6.5109   7.3790   8.1226   8.2788   8.3808   8.5700
    11.0852  11.5748  11.6696  12.5344  12.6434  14.0339  14.6271  14.9696
    15.7131  16.3425

     occupation numbers 
     1.0000   1.0000   1.0000   1.0000   1.0000   1.0000   1.0000   1.0000
     1.0000   1.0000   1.0000   1.0000   1.0000   1.0000   1.0000   1.0000
     1.0000   1.0000   1.0000   1.0000   1.0000   1.0832   0.0000   0.0000
     0.0000   0.0000

          k =-0.5833-0.5833 0.7500 (  2707 PWs)   bands (ev):

   -75.4220 -71.4472 -41.5486 -41.4601 -41.4388 -37.6126 -37.6036 -37.5860
    -5.3410  -5.2549   6.5243   6.9884   8.3898   8.4758   9.1983   9.3518
    10.5970  11.5506  11.5537  12.4805  12.6326  13.8957  14.6780  14.8208
    15.7820  16.1624

     occupation numbers 
     1.0000   1.0000   1.0000   1.0000   1.0000   1.0000   1.0000   1.0000
     1.0000   1.0000   1.0000   1.0000   1.0000   1.0000   1.0000   1.0000
     1.0000   1.0000   1.0000   1.0000   1.0000   1.0141   0.0000   0.0000
     0.0000   0.0000

          k =-0.3333-0.6667 0.6667 (  2699 PWs)   bands (ev):

   -75.4212 -71.4462 -41.5471 -41.4648 -41.4459 -37.6184 -37.6017 -37.5948
    -5.1454  -5.1374   6.3598   7.0645   8.0752   8.3812   8.5160   9.1212
    10.9055  11.5011  11.6063  12.5983  12.7338  14.1059  14.6185  14.9643
    15.9137  16.0540

     occupation numbers 
     1.0000   1.0000   1.0000   1.0000   1.0000   1.0000   1.0000   1.0000
     1.0000   1.0000   1.0000   1.0000   1.0000   1.0000   1.0000   1.0000
     1.0000   1.0000   1.0000   1.0000   1.0000   0.9759   0.0000   0.0000
     0.0000   0.0000

          k =-0.0833-0.7500 0.5833 (  2700 PWs)   bands (ev):

   -75.4207 -71.4457 -41.5465 -41.4584 -41.4582 -37.6103 -37.6101 -37.6009
    -5.0646  -5.0646   7.0404   7.0620   7.6847   7.8254   8.3988   8.5455
    11.2104  11.5987  11.6486  12.5054  12.7175  14.5062  14.5441  14.7107
    15.9261  16.0497

     occupation numbers 
     1.0000   1.0000   1.0000   1.0000   1.0000   1.0000   1.0000   1.0000
     1.0000   1.0000   1.0000   1.0000   1.0000   1.0000   1.0000   1.0000
     1.0000   1.0000   1.0000   1.0000   1.0000   0.0002   0.0000   0.0000
     0.0000   0.0000

          k =-0.4167-0.4167 0.5833 (  2704 PWs)   bands (ev):

   -75.4212 -71.4462 -41.5471 -41.4697 -41.4412 -37.6245 -37.6016 -37.5889
    -5.1469  -5.1315   5.9915   7.0949   8.1883   8.2669   9.0993   9.3652
    10.4703  11.5504  11.6769  12.5792  12.6737  13.7886  14.8344  15.0401
    16.1913  16.2089

     occupation numbers 
     1.0000   1.0000   1.0000   1.0000   1.0000   1.0000   1.0000   1.0000
     1.0000   1.0000   1.0000   1.0000   1.0000   1.0000   1.0000   1.0000
     1.0000   1.0000   1.0000   1.0000   1.0000   1.0006   0.0000   0.0000
     0.0000   0.0000

          k = 0.1667 0.1667 0.1667 (  2710 PWs)   bands (ev):

   -75.4245 -71.4503 -41.5524 -41.4318 -41.4318 -37.6089 -37.5775 -37.5775
    -6.0191  -5.4502   6.7107   8.4708   8.4708   8.8419   9.8133   9.8133
    11.0714  11.0714  11.1987  12.7959  12.7959  14.0634  14.0634  14.2790
    15.9124  15.9124

     occupation numbers 
     1.0000   1.0000   1.0000   1.0000   1.0000   1.0000   1.0000   1.0000
     1.0000   1.0000   1.0000   1.0000   1.0000   1.0000   1.0000   1.0000
     1.0000   1.0000   1.0000   1.0000   1.0000   1.0662   1.0662   0.1710
     0.0000   0.0000

          k =-1.0833 0.5833 0.5833 (  2698 PWs)   bands (ev):

   -75.4237 -71.4492 -41.5511 -41.4412 -41.4340 -37.6071 -37.5891 -37.5802
    -5.7656  -5.4287   6.9537   7.7085   8.4450   8.7178   9.4630   9.6426
    10.8881  11.3885  11.6589  12.1905  12.4226  14.0841  14.2904  14.5259
    15.1600  16.1043

     occupation numbers 
     1.0000   1.0000   1.0000   1.0000   1.0000   1.0000   1.0000   1.0000
     1.0000   1.0000   1.0000   1.0000   1.0000   1.0000   1.0000   1.0000
     1.0000   1.0000   1.0000   1.0000   1.0000   1.0331   0.1387   0.0001
     0.0000   0.0000

          k =-0.8333 0.5000 0.5000 (  2702 PWs)   bands (ev):

   -75.4220 -71.4472 -41.5485 -41.4601 -41.4388 -37.6126 -37.6036 -37.5860
    -5.3752  -5.2188   6.5088   7.0224   8.3156   8.3237   9.4819   9.4955
    10.4866  11.5665  11.6598  12.3488  12.3518  13.9345  14.6655  14.8498
    15.4926  16.2323

     occupation numbers 
     1.0000   1.0000   1.0000   1.0000   1.0000   1.0000   1.0000   1.0000
     1.0000   1.0000   1.0000   1.0000   1.0000   1.0000   1.0000   1.0000
     1.0000   1.0000   1.0000   1.0000   1.0000   1.0313   0.0000   0.0000
     0.0000   0.0000

          k =-0.6667-0.6667 1.0000 (  2707 PWs)   bands (ev):

   -75.4237 -71.4493 -41.5512 -41.4412 -41.4342 -37.6073 -37.5891 -37.5803
    -5.6740  -5.5260   7.1605   7.5515   8.6028   8.8274   9.1952   9.3757
    10.9628  11.3140  11.6312  12.2436  12.7142  14.0029  14.3276  14.5120
    15.3714  15.9289

     occupation numbers 
     1.0000   1.0000   1.0000   1.0000   1.0000   1.0000   1.0000   1.0000
     1.0000   1.0000   1.0000   1.0000   1.0000   1.0000   1.0000   1.0000
     1.0000   1.0000   1.0000   1.0000   1.0000   1.0751   0.0637   0.0002
     0.0000   0.0000

          k =-0.4167-0.7500 0.9167 (  2706 PWs)   bands (ev):

   -75.4224 -71.4477 -41.5493 -41.4537 -41.4393 -37.6046 -37.6046 -37.5867
    -5.3787  -5.3734   6.8973   7.0585   8.5142   8.6987   8.7301   9.2673
    11.0462  11.2803  11.7113  12.1728  12.6719  14.1850  14.3040  14.8549
    15.4696  15.8749

     occupation numbers 
     1.0000   1.0000   1.0000   1.0000   1.0000   1.0000   1.0000   1.0000
     1.0000   1.0000   1.0000   1.0000   1.0000   1.0000   1.0000   1.0000
     1.0000   1.0000   1.0000   1.0000   1.0000   0.6051   0.1061   0.0000
     0.0000   0.0000

          k =-0.2500-0.2500-0.2500 (  2702 PWs)   bands (ev):

   -75.4245 -71.4503 -41.5525 -41.4317 -41.4317 -37.6091 -37.5773 -37.5773
    -5.7563  -5.7333   7.4892   7.8874   8.6122   8.6122   9.5583   9.5583
    11.0850  11.0850  11.2070  12.9926  12.9926  14.0411  14.0411  14.2085
    15.8140  15.8140

     occupation numbers 
     1.0000   1.0000   1.0000   1.0000   1.0000   1.0000   1.0000   1.0000
     1.0000   1.0000   1.0000   1.0000   1.0000   1.0000   1.0000   1.0000
     1.0000   1.0000   1.0000   1.0000   1.0000   1.0818   1.0818   0.4766
     0.0000   0.0000

 ------ SPIN DOWN ----------


          k = 0.0000 0.0000 0.0000 (  2713 PWs)   bands (ev):

   -75.4245 -71.4503 -41.5529 -41.4317 -41.4317 -37.6090 -37.5774 -37.5774
    -6.2762  -5.1308   5.8475   8.2076   8.2076  10.5763  10.5791  10.5791
    11.0068  11.0252  11.0252  12.0895  12.0895  14.1299  14.1299  14.4750
    14.5764  16.1718

     occupation numbers 
     1.0000   1.0000   1.0000   1.0000   1.0000   1.0000   1.0000   1.0000
     1.0000   1.0000   1.0000   1.0000   1.0000   1.0000   1.0000   1.0000
     1.0000   1.0000   1.0000   1.0000   1.0000   0.8862   0.8862   0.0007
     0.0000   0.0000

          k = 0.2500-0.0833-0.0833 (  2719 PWs)   bands (ev):

   -75.4237 -71.4493 -41.5516 -41.4412 -41.4341 -37.6074 -37.5892 -37.5803
    -6.0418  -5.1092   6.2813   8.0394   8.2887   8.8474   9.8684   9.8919
    10.9554  11.4022  11.4435  12.2815  12.5314  14.0128  14.3052  14.5410
    15.5181  16.0915

     occupation numbers 
     1.0000   1.0000   1.0000   1.0000   1.0000   1.0000   1.0000   1.0000
     1.0000   1.0000   1.0000   1.0000   1.0000   1.0000   1.0000   1.0000
     1.0000   1.0000   1.0000   1.0000   1.0000   1.0797   0.1034   0.0000
     0.0000   0.0000

          k = 0.5000-0.1667-0.1667 (  2713 PWs)   bands (ev):

   -75.4220 -71.4473 -41.5488 -41.4602 -41.4387 -37.6129 -37.6037 -37.5860
    -5.5264  -5.0647   7.0852   7.1834   7.6492   8.4017   8.8749   9.2805
    10.8278  11.5518  11.7357  12.4940  12.6880  13.7242  14.6643  14.8696
    15.6359  15.9675

     occupation numbers 
     1.0000   1.0000   1.0000   1.0000   1.0000   1.0000   1.0000   1.0000
     1.0000   1.0000   1.0000   1.0000   1.0000   1.0000   1.0000   1.0000
     1.0000   1.0000   1.0000   1.0000   1.0000   1.0000   0.0000   0.0000
     0.0000   0.0000

          k =-0.7500 0.2500 0.2500 (  2696 PWs)   bands (ev):

   -75.4211 -71.4462 -41.5471 -41.4694 -41.4410 -37.6244 -37.6017 -37.5888
    -5.1510  -5.1339   6.6945   6.9513   7.8539   8.4066   8.4122   9.0993
    10.7512  11.5604  11.7836  12.6872  12.8850  13.5561  14.8232  15.0443
    15.9035  15.9193

     occupation numbers 
     1.0000   1.0000   1.0000   1.0000   1.0000   1.0000   1.0000   1.0000
     1.0000   1.0000   1.0000   1.0000   1.0000   1.0000   1.0000   1.0000
     1.0000   1.0000   1.0000   1.0000   1.0000   1.0000   0.0000   0.0000
     0.0000   0.0000

          k = 0.1667 0.1667-0.1667 (  2710 PWs)   bands (ev):

   -75.4237 -71.4493 -41.5515 -41.4411 -41.4341 -37.6072 -37.5891 -37.5803
    -6.0189  -5.1378   6.3489   8.0471   8.3882   8.8358   9.6768   9.7013
    11.0269  11.3315  11.3467  12.6211  12.6340  13.9384  14.3382  14.5549
    15.8313  15.9166

     occupation numbers 
     1.0000   1.0000   1.0000   1.0000   1.0000   1.0000   1.0000   1.0000
     1.0000   1.0000   1.0000   1.0000   1.0000   1.0000   1.0000   1.0000
     1.0000   1.0000   1.0000   1.0000   1.0000   1.0335   0.0497   0.0000
     0.0000   0.0000

          k = 0.4167 0.0833-0.2500 (  2709 PWs)   bands (ev):

   -75.4224 -71.4478 -41.5493 -41.4536 -41.4395 -37.6046 -37.6045 -37.5869
    -5.6344  -5.1073   6.9333   7.4380   8.0319   8.3882   8.8861   9.2320
    11.0662  11.5353  11.6144  12.3073  12.6914  14.1552  14.2655  14.8276
    15.6201  15.9562

     occupation numbers 
     1.0000   1.0000   1.0000   1.0000   1.0000   1.0000   1.0000   1.0000
     1.0000   1.0000   1.0000   1.0000   1.0000   1.0000   1.0000   1.0000
     1.0000   1.0000   1.0000   1.0000   1.0000   0.7661   0.2162   0.0000
     0.0000   0.0000

          k =-0.8333 0.5000 0.1667 (  2706 PWs)   bands (ev):

   -75.4211 -71.4463 -41.5472 -41.4647 -41.4460 -37.6185 -37.6018 -37.5950
    -5.2223  -5.0645   6.8855   7.0079   7.8522   8.3537   8.5141   8.6101
    11.0654  11.5980  11.7251  12.4514  12.6517  14.0277  14.6192  14.9693
    15.8137  16.0042

     occupation numbers 
     1.0000   1.0000   1.0000   1.0000   1.0000   1.0000   1.0000   1.0000
     1.0000   1.0000   1.0000   1.0000   1.0000   1.0000   1.0000   1.0000
     1.0000   1.0000   1.0000   1.0000   1.0000   1.0832   0.0000   0.0000
     0.0000   0.0000

          k =-0.5833 0.4167 0.0833 (  2707 PWs)   bands (ev):

   -75.4212 -71.4462 -41.5472 -41.4647 -41.4460 -37.6185 -37.6018 -37.5949
    -5.2331  -5.0552   6.7396   7.4090   7.8315   8.2823   8.3754   8.5184
    11.1045  11.6022  11.7506  12.4270  12.6537  14.0069  14.6254  14.9710
    15.6922  16.2223

     occupation numbers 
     1.0000   1.0000   1.0000   1.0000   1.0000   1.0000   1.0000   1.0000
     1.0000   1.0000   1.0000   1.0000   1.0000   1.0000   1.0000   1.0000
     1.0000   1.0000   1.0000   1.0000   1.0000   1.0772   0.0000   0.0000
     0.0000   0.0000

          k =-0.3333 0.3333-0.0000 (  2712 PWs)   bands (ev):

   -75.4224 -71.4478 -41.5494 -41.4535 -41.4394 -37.6046 -37.6046 -37.5869
    -5.6735  -5.0647   6.9908   7.5684   7.8416   8.3743   8.8585   9.1865
    11.0967  11.5933  11.6370  12.2393  12.7529  14.1567  14.2426  14.8220
    15.6868  16.0238

     occupation numbers 
     1.0000   1.0000   1.0000   1.0000   1.0000   1.0000   1.0000   1.0000
     1.0000   1.0000   1.0000   1.0000   1.0000   1.0000   1.0000   1.0000
     1.0000   1.0000   1.0000   1.0000   1.0000   0.7586   0.3079   0.0000
     0.0000   0.0000

          k = 0.3333 0.3333-0.3333 (  2699 PWs)   bands (ev):

   -75.4220 -71.4472 -41.5486 -41.4599 -41.4387 -37.6125 -37.6035 -37.5860
    -5.4504  -5.1450   6.7295   7.0664   8.2718   8.4843   8.8202   9.1700
    10.7818  11.5430  11.5573  12.7085  12.8086  13.7708  14.6852  14.8255
    15.9890  16.0559

     occupation numbers 
     1.0000   1.0000   1.0000   1.0000   1.0000   1.0000   1.0000   1.0000
     1.0000   1.0000   1.0000   1.0000   1.0000   1.0000   1.0000   1.0000
     1.0000   1.0000   1.0000   1.0000   1.0000   1.0003   0.0000   0.0000
     0.0000   0.0000

          k =-0.9167 0.7500 0.0833 (  2704 PWs)   bands (ev):

   -75.4211 -71.4462 -41.5472 -41.4648 -41.4458 -37.6185 -37.6017 -37.5948
    -5.1835  -5.1009   6.3467   7.2122   8.1667   8.3323   8.4221   8.9412
    10.9863  11.5104  11.6190  12.5782  12.7245  14.0828  14.6204  14.9668
    15.8416  16.2299

     occupation numbers 
     1.0000   1.0000   1.0000   1.0000   1.0000   1.0000   1.0000   1.0000
     1.0000   1.0000   1.0000   1.0000   1.0000   1.0000   1.0000   1.0000
     1.0000   1.0000   1.0000   1.0000   1.0000   1.0357   0.0000   0.0000
     0.0000   0.0000

          k =-0.6667 0.6667 0.0000 (  2718 PWs)   bands (ev):

   -75.4208 -71.4458 -41.5466 -41.4585 -41.4584 -37.6105 -37.6105 -37.6010
    -5.0647  -5.0646   7.0011   7.1148   7.6216   7.8887   8.3710   8.5593
    11.2103  11.5989  11.6481  12.5078  12.7148  14.5052  14.5451  14.7106
    15.9190  16.0566

     occupation numbers 
     1.0000   1.0000   1.0000   1.0000   1.0000   1.0000   1.0000   1.0000
     1.0000   1.0000   1.0000   1.0000   1.0000   1.0000   1.0000   1.0000
     1.0000   1.0000   1.0000   1.0000   1.0000   0.0002   0.0000   0.0000
     0.0000   0.0000

          k =-0.5000-0.5000 0.5000 (  2712 PWs)   bands (ev):

   -75.4212 -71.4463 -41.5473 -41.4697 -41.4411 -37.6246 -37.6017 -37.5889
    -5.1455  -5.1307   5.8587   7.0873   8.2308   8.2355   9.4448   9.4460
    10.2809  11.5460  11.6395  12.4809  12.6853  13.8597  14.8377  15.0383
    16.2760  16.3672

     occupation numbers 
     1.0000   1.0000   1.0000   1.0000   1.0000   1.0000   1.0000   1.0000
     1.0000   1.0000   1.0000   1.0000   1.0000   1.0000   1.0000   1.0000
     1.0000   1.0000   1.0000   1.0000   1.0000   1.0057   0.0000   0.0000
     0.0000   0.0000

          k = 0.0833 0.0833 0.0833 (  2731 PWs)   bands (ev):

   -75.4246 -71.4504 -41.5530 -41.4319 -41.4319 -37.6092 -37.5776 -37.5776
    -6.2088  -5.2192   6.0742   8.2807   8.2807   9.9439  10.2941  10.2941
    11.0431  11.0431  11.1441  12.3610  12.3610  14.1077  14.1077  14.4288
    15.0379  16.0900

     occupation numbers 
     1.0000   1.0000   1.0000   1.0000   1.0000   1.0000   1.0000   1.0000
     1.0000   1.0000   1.0000   1.0000   1.0000   1.0000   1.0000   1.0000
     1.0000   1.0000   1.0000   1.0000   1.0000   0.9702   0.9702   0.0037
     0.0000   0.0000

          k = 0.3333 0.0000 0.0000 (  2706 PWs)   bands (ev):

   -75.4237 -71.4493 -41.5513 -41.4411 -41.4340 -37.6072 -37.5892 -37.5802
    -5.9511  -5.2188   6.5008   8.0899   8.3115   8.5395   9.8842   9.9057
    10.8620  11.4861  11.5682  12.1711  12.2639  14.0873  14.2811  14.5258
    15.2278  16.1789

     occupation numbers 
     1.0000   1.0000   1.0000   1.0000   1.0000   1.0000   1.0000   1.0000
     1.0000   1.0000   1.0000   1.0000   1.0000   1.0000   1.0000   1.0000
     1.0000   1.0000   1.0000   1.0000   1.0000   1.0261   0.1649   0.0001
     0.0000   0.0000

          k =-0.9167 0.4167 0.4167 (  2695 PWs)   bands (ev):

   -75.4220 -71.4472 -41.5485 -41.4600 -41.4387 -37.6126 -37.6035 -37.5859
    -5.4742  -5.1173   6.7104   7.1247   7.9924   8.3275   9.2581   9.4456
    10.6551  11.5620  11.8141  12.2263  12.4571  13.8512  14.6577  14.8844
    15.4211  16.1407

     occupation numbers 
     1.0000   1.0000   1.0000   1.0000   1.0000   1.0000   1.0000   1.0000
     1.0000   1.0000   1.0000   1.0000   1.0000   1.0000   1.0000   1.0000
     1.0000   1.0000   1.0000   1.0000   1.0000   1.0045   0.0000   0.0000
     0.0000   0.0000

          k =-0.6667 0.3333 0.3333 (  2699 PWs)   bands (ev):

   -75.4211 -71.4462 -41.5471 -41.4695 -41.4410 -37.6245 -37.6017 -37.5888
    -5.1496  -5.1331   6.3501   7.0778   8.0241   8.3549   8.5877   9.1948
    10.6800  11.5575  11.7492  12.6718  12.7803  13.6391  14.8272  15.0429
    15.9890  16.0134

     occupation numbers 
     1.0000   1.0000   1.0000   1.0000   1.0000   1.0000   1.0000   1.0000
     1.0000   1.0000   1.0000   1.0000   1.0000   1.0000   1.0000   1.0000
     1.0000   1.0000   1.0000   1.0000   1.0000   1.0000   0.0000   0.0000
     0.0000   0.0000

          k =-0.4167 0.2500 0.2500 (  2706 PWs)   bands (ev):

   -75.4220 -71.4473 -41.5488 -41.4601 -41.4386 -37.6128 -37.6037 -37.5859
    -5.5179  -5.0751   7.0146   7.2433   7.7416   8.4952   8.7210   9.1317
    10.8738  11.5443  11.6281  12.7528  12.8137  13.6824  14.6800  14.8447
    15.8842  15.9626

     occupation numbers 
     1.0000   1.0000   1.0000   1.0000   1.0000   1.0000   1.0000   1.0000
     1.0000   1.0000   1.0000   1.0000   1.0000   1.0000   1.0000   1.0000
     1.0000   1.0000   1.0000   1.0000   1.0000   1.0000   0.0000   0.0000
     0.0000   0.0000

          k = 0.2500 0.2500-0.0833 (  2719 PWs)   bands (ev):

   -75.4237 -71.4494 -41.5515 -41.4411 -41.4343 -37.6075 -37.5891 -37.5805
    -5.8870  -5.2944   6.6758   8.0687   8.5124   8.5606   9.4093   9.5490
    11.0218  11.2892  11.4733  12.4328  12.8150  13.9312  14.3517  14.5330
    15.6376  15.8267

     occupation numbers 
     1.0000   1.0000   1.0000   1.0000   1.0000   1.0000   1.0000   1.0000
     1.0000   1.0000   1.0000   1.0000   1.0000   1.0000   1.0000   1.0000
     1.0000   1.0000   1.0000   1.0000   1.0000   1.0295   0.0357   0.0001
     0.0000   0.0000

          k =-1.0000 0.6667 0.3333 (  2701 PWs)   bands (ev):

   -75.4224 -71.4477 -41.5492 -41.4535 -41.4394 -37.6045 -37.6044 -37.5868
    -5.5264  -5.2222   6.8816   7.1968   8.3964   8.4880   8.8173   9.3063
    11.0253  11.3778  11.6644  12.2762  12.6493  14.1711  14.2951  14.8452
    15.4933  15.9069

     occupation numbers 
     1.0000   1.0000   1.0000   1.0000   1.0000   1.0000   1.0000   1.0000
     1.0000   1.0000   1.0000   1.0000   1.0000   1.0000   1.0000   1.0000
     1.0000   1.0000   1.0000   1.0000   1.0000   0.6817   0.1266   0.0000
     0.0000   0.0000

          k =-0.7500 0.5833 0.2500 (  2705 PWs)   bands (ev):

   -75.4212 -71.4462 -41.5472 -41.4648 -41.4460 -37.6185 -37.6017 -37.5950
    -5.1897  -5.0943   6.5869   6.9710   7.9646   8.4123   8.5384   8.9273
    10.9732  11.5680  11.6227  12.5967  12.6329  14.0775  14.6193  14.9652
    15.8798  15.9727

     occupation numbers 
     1.0000   1.0000   1.0000   1.0000   1.0000   1.0000   1.0000   1.0000
     1.0000   1.0000   1.0000   1.0000   1.0000   1.0000   1.0000   1.0000
     1.0000   1.0000   1.0000   1.0000   1.0000   1.0458   0.0000   0.0000
     0.0000   0.0000

          k =-0.5000 0.5000 0.1667 (  2703 PWs)   bands (ev):

   -75.4211 -71.4462 -41.5472 -41.4647 -41.4459 -37.6185 -37.6017 -37.5949
    -5.2188  -5.0683   6.5110   7.3790   8.1226   8.2788   8.3808   8.5700
    11.0852  11.5749  11.6697  12.5344  12.6434  14.0339  14.6271  14.9695
    15.7131  16.3424

     occupation numbers 
     1.0000   1.0000   1.0000   1.0000   1.0000   1.0000   1.0000   1.0000
     1.0000   1.0000   1.0000   1.0000   1.0000   1.0000   1.0000   1.0000
     1.0000   1.0000   1.0000   1.0000   1.0000   1.0832   0.0000   0.0000
     0.0000   0.0000

          k =-0.5833-0.5833 0.7500 (  2707 PWs)   bands (ev):

   -75.4220 -71.4473 -41.5487 -41.4601 -41.4388 -37.6127 -37.6036 -37.5861
    -5.3410  -5.2549   6.5243   6.9884   8.3898   8.4758   9.1982   9.3518
    10.5970  11.5506  11.5538  12.4806  12.6326  13.8957  14.6780  14.8207
    15.7819  16.1624

     occupation numbers 
     1.0000   1.0000   1.0000   1.0000   1.0000   1.0000   1.0000   1.0000
     1.0000   1.0000   1.0000   1.0000   1.0000   1.0000   1.0000   1.0000
     1.0000   1.0000   1.0000   1.0000   1.0000   1.0141   0.0000   0.0000
     0.0000   0.0000

          k =-0.3333-0.6667 0.6667 (  2699 PWs)   bands (ev):

   -75.4211 -71.4462 -41.5472 -41.4647 -41.4458 -37.6184 -37.6017 -37.5948
    -5.1454  -5.1374   6.3598   7.0645   8.0752   8.3812   8.5160   9.1212
    10.9055  11.5011  11.6063  12.5983  12.7338  14.1059  14.6185  14.9642
    15.9137  16.0539

     occupation numbers 
     1.0000   1.0000   1.0000   1.0000   1.0000   1.0000   1.0000   1.0000
     1.0000   1.0000   1.0000   1.0000   1.0000   1.0000   1.0000   1.0000
     1.0000   1.0000   1.0000   1.0000   1.0000   0.9759   0.0000   0.0000
     0.0000   0.0000

          k =-0.0833-0.7500 0.5833 (  2700 PWs)   bands (ev):

   -75.4207 -71.4457 -41.5466 -41.4583 -41.4581 -37.6103 -37.6102 -37.6009
    -5.0647  -5.0646   7.0404   7.0620   7.6847   7.8254   8.3988   8.5455
    11.2104  11.5987  11.6487  12.5054  12.7175  14.5062  14.5441  14.7106
    15.9261  16.0497

     occupation numbers 
     1.0000   1.0000   1.0000   1.0000   1.0000   1.0000   1.0000   1.0000
     1.0000   1.0000   1.0000   1.0000   1.0000   1.0000   1.0000   1.0000
     1.0000   1.0000   1.0000   1.0000   1.0000   0.0002   0.0000   0.0000
     0.0000   0.0000

          k =-0.4167-0.4167 0.5833 (  2704 PWs)   bands (ev):

   -75.4211 -71.4462 -41.5471 -41.4696 -41.4411 -37.6246 -37.6016 -37.5889
    -5.1469  -5.1315   5.9915   7.0949   8.1883   8.2669   9.0993   9.3652
    10.4703  11.5504  11.6769  12.5792  12.6737  13.7886  14.8344  15.0400
    16.1913  16.2089

     occupation numbers 
     1.0000   1.0000   1.0000   1.0000   1.0000   1.0000   1.0000   1.0000
     1.0000   1.0000   1.0000   1.0000   1.0000   1.0000   1.0000   1.0000
     1.0000   1.0000   1.0000   1.0000   1.0000   1.0006   0.0000   0.0000
     0.0000   0.0000

          k = 0.1667 0.1667 0.1667 (  2710 PWs)   bands (ev):

   -75.4245 -71.4503 -41.5525 -41.4318 -41.4318 -37.6089 -37.5775 -37.5775
    -6.0191  -5.4502   6.7106   8.4708   8.4708   8.8418   9.8133   9.8133
    11.0714  11.0714  11.1986  12.7959  12.7959  14.0634  14.0634  14.2789
    15.9124  15.9124

     occupation numbers 
     1.0000   1.0000   1.0000   1.0000   1.0000   1.0000   1.0000   1.0000
     1.0000   1.0000   1.0000   1.0000   1.0000   1.0000   1.0000   1.0000
     1.0000   1.0000   1.0000   1.0000   1.0000   1.0662   1.0662   0.1713
     0.0000   0.0000

          k =-1.0833 0.5833 0.5833 (  2698 PWs)   bands (ev):

   -75.4237 -71.4492 -41.5511 -41.4411 -41.4340 -37.6071 -37.5891 -37.5802
    -5.7656  -5.4287   6.9537   7.7085   8.4450   8.7178   9.4629   9.6426
    10.8882  11.3885  11.6588  12.1905  12.4226  14.0841  14.2904  14.5258
    15.1599  16.1043

     occupation numbers 
     1.0000   1.0000   1.0000   1.0000   1.0000   1.0000   1.0000   1.0000
     1.0000   1.0000   1.0000   1.0000   1.0000   1.0000   1.0000   1.0000
     1.0000   1.0000   1.0000   1.0000   1.0000   1.0331   0.1386   0.0001
     0.0000   0.0000

          k =-0.8333 0.5000 0.5000 (  2702 PWs)   bands (ev):

   -75.4220 -71.4472 -41.5486 -41.4600 -41.4387 -37.6127 -37.6036 -37.5860
    -5.3752  -5.2188   6.5088   7.0224   8.3155   8.3237   9.4819   9.4955
    10.4866  11.5665  11.6598  12.3488  12.3518  13.9345  14.6655  14.8497
    15.4926  16.2323

     occupation numbers 
     1.0000   1.0000   1.0000   1.0000   1.0000   1.0000   1.0000   1.0000
     1.0000   1.0000   1.0000   1.0000   1.0000   1.0000   1.0000   1.0000
     1.0000   1.0000   1.0000   1.0000   1.0000   1.0313   0.0000   0.0000
     0.0000   0.0000

          k =-0.6667-0.6667 1.0000 (  2707 PWs)   bands (ev):

   -75.4237 -71.4493 -41.5513 -41.4411 -41.4341 -37.6073 -37.5891 -37.5804
    -5.6740  -5.5260   7.1605   7.5515   8.6028   8.8273   9.1952   9.3757
    10.9628  11.3141  11.6311  12.2436  12.7142  14.0029  14.3276  14.5119
    15.3714  15.9289

     occupation numbers 
     1.0000   1.0000   1.0000   1.0000   1.0000   1.0000   1.0000   1.0000
     1.0000   1.0000   1.0000   1.0000   1.0000   1.0000   1.0000   1.0000
     1.0000   1.0000   1.0000   1.0000   1.0000   1.0751   0.0636   0.0002
     0.0000   0.0000

          k =-0.4167-0.7500 0.9167 (  2706 PWs)   bands (ev):

   -75.4224 -71.4478 -41.5493 -41.4536 -41.4393 -37.6046 -37.6046 -37.5867
    -5.3787  -5.3734   6.8973   7.0585   8.5142   8.6987   8.7301   9.2673
    11.0462  11.2803  11.7113  12.1728  12.6719  14.1850  14.3039  14.8548
    15.4696  15.8748

     occupation numbers 
     1.0000   1.0000   1.0000   1.0000   1.0000   1.0000   1.0000   1.0000
     1.0000   1.0000   1.0000   1.0000   1.0000   1.0000   1.0000   1.0000
     1.0000   1.0000   1.0000   1.0000   1.0000   0.6051   0.1062   0.0000
     0.0000   0.0000

          k =-0.2500-0.2500-0.2500 (  2702 PWs)   bands (ev):

   -75.4245 -71.4503 -41.5525 -41.4316 -41.4316 -37.6091 -37.5773 -37.5773
    -5.7563  -5.7333   7.4892   7.8874   8.6122   8.6122   9.5582   9.5582
    11.0850  11.0850  11.2070  12.9926  12.9926  14.0411  14.0411  14.2084
    15.8140  15.8140

     occupation numbers 
     1.0000   1.0000   1.0000   1.0000   1.0000   1.0000   1.0000   1.0000
     1.0000   1.0000   1.0000   1.0000   1.0000   1.0000   1.0000   1.0000
     1.0000   1.0000   1.0000   1.0000   1.0000   1.0818   1.0818   0.4771
     0.0000   0.0000

     the Fermi energy is    14.2231 ev

!    total energy              =    -741.81592118 Ry
     total all-electron energy =     -5392.102768 Ry
     estimated scf accuracy    <          5.4E-09 Ry
     smearing contrib. (-TS)   =       0.00038276 Ry
     internal energy E=F+TS    =    -741.81630394 Ry

     The total energy is F=E-TS. E is the sum of the following terms:
     one-electron contribution =    -267.54493685 Ry
     hartree contribution      =     159.52635405 Ry
     xc contribution           =     -70.59906232 Ry
     ewald contribution        =    -378.48617103 Ry
     one-center paw contrib.   =    -184.71248778 Ry
      -> PAW hartree energy AE =     183.93208721 Ry
      -> PAW hartree energy PS =    -182.63099042 Ry
      -> PAW xc energy AE      =    -110.39039704 Ry
      -> PAW xc energy PS      =      26.32191118 Ry
      -> total E_H with PAW    =     160.82745084 Ry
      -> total E_XC with PAW   =    -154.66754819 Ry

     total magnetization       =     0.00 Bohr mag/cell
     absolute magnetization    =     7.17 Bohr mag/cell

     convergence has been achieved in  28 iterations

     negative rho (up, down):  2.704E-04 2.704E-04

     Forces acting on atoms (cartesian axes, Ry/au):

     atom    1 type  1   force =    -0.00000000    0.00000000    0.00000000
     atom    2 type  2   force =    -0.00000000    0.00000000   -0.00000000
     atom    3 type  3   force =     0.00000001    0.00000001    0.00000001
     atom    4 type  3   force =    -0.00000001   -0.00000001   -0.00000001
     The non-local contrib.  to forces
     atom    1 type  1   force =     0.00000000    0.00000000    0.00000000
     atom    2 type  2   force =     0.00000000   -0.00000000    0.00000000
     atom    3 type  3   force =     0.00000190    0.00000190    0.00000190
     atom    4 type  3   force =    -0.00000190   -0.00000190   -0.00000190
     The ionic contribution  to forces
     atom    1 type  1   force =    -0.00000000   -0.00000000   -0.00000000
     atom    2 type  2   force =     0.00000000    0.00000000    0.00000000
     atom    3 type  3   force =    -0.00000000   -0.00000000   -0.00000000
     atom    4 type  3   force =     0.00000000    0.00000000    0.00000000
     The local contribution  to forces
     atom    1 type  1   force =     0.00000000   -0.00000000   -0.00000000
     atom    2 type  2   force =     0.00000000    0.00000000    0.00000000
     atom    3 type  3   force =    -0.00000006   -0.00000006   -0.00000006
     atom    4 type  3   force =     0.00000006    0.00000006    0.00000006
     The core correction contribution to forces
     atom    1 type  1   force =     0.00000000   -0.00000000    0.00000000
     atom    2 type  2   force =    -0.00000000   -0.00000000   -0.00000000
     atom    3 type  3   force =    -0.00000002   -0.00000002   -0.00000002
     atom    4 type  3   force =     0.00000002    0.00000002    0.00000002
     The Hubbard contrib.    to forces
     atom    1 type  1   force =     0.00000000    0.00000000    0.00000000
     atom    2 type  2   force =     0.00000000    0.00000000    0.00000000
     atom    3 type  3   force =     0.00000000    0.00000000    0.00000000
     atom    4 type  3   force =     0.00000000    0.00000000    0.00000000
     The SCF correction term to forces
     atom    1 type  1   force =    -0.00000000   -0.00000000   -0.00000000
     atom    2 type  2   force =     0.00000000   -0.00000000   -0.00000000
     atom    3 type  3   force =    -0.00000181   -0.00000181   -0.00000181
     atom    4 type  3   force =     0.00000181    0.00000181    0.00000181

     Total force =     0.000000     Total SCF correction =     0.000004
     SCF correction compared to forces is large: reduce conv_thr to get better values


     Computing stress (Cartesian axis) and pressure


     negative rho (up, down):  2.704E-04 2.704E-04
          total   stress  (Ry/bohr**3)                   (kbar)     P=      -62.31
  -0.00042360   0.00023664   0.00023664          -62.31       34.81       34.81
   0.00023664  -0.00042360   0.00023664           34.81      -62.31       34.81
   0.00023664   0.00023664  -0.00042360           34.81       34.81      -62.31

     kinetic stress (kbar)  67269.58     -1.37     -1.37
                               -1.37  67269.58     -1.37
                               -1.37     -1.37  67269.58

     local   stress (kbar)  -1748.69     65.78     65.78
                               65.78  -1748.69     65.78
                               65.78     65.78  -1748.69

     nonloc. stress (kbar) -14277.07     -8.09     -8.09
                               -8.09 -14277.07     -8.09
                               -8.09     -8.09 -14277.07

     hartree stress (kbar)  28583.07    -21.72    -21.72
                              -21.72  28583.07    -21.72
                              -21.72    -21.72  28583.07

     exc-cor stress (kbar) -10087.19     -0.21     -0.21
                               -0.21 -10087.19     -0.21
                               -0.21     -0.21 -10087.19

     corecor stress (kbar)  -1986.91      0.42      0.42
                                0.42  -1986.91      0.42
                                0.42      0.42  -1986.91

     ewald   stress (kbar) -67815.12     -0.00     -0.00
                               -0.00 -67815.12      0.00
                               -0.00      0.00 -67815.12

     hubbard stress (kbar)      0.00      0.00      0.00
                                0.00      0.00      0.00
                                0.00      0.00      0.00

     DFT-D   stress (kbar)      0.00      0.00      0.00
                                0.00      0.00      0.00
                                0.00      0.00      0.00

     XDM     stress (kbar)      0.00      0.00      0.00
                                0.00      0.00      0.00
                                0.00      0.00      0.00

     dft-nl  stress (kbar)      0.00      0.00      0.00
                                0.00      0.00      0.00
                                0.00      0.00      0.00

     TS-vdW  stress (kbar)      0.00      0.00      0.00
                                0.00      0.00      0.00
                                0.00      0.00      0.00

     MDB     stress (kbar)      0.00      0.00      0.00
                                0.00      0.00      0.00
                                0.00      0.00      0.00

     3D-RISM stress (kbar)      0.00      0.00      0.00
                                0.00      0.00      0.00
                                0.00      0.00      0.00


     Writing all to output data dir ./tmp/FeO.save/ :
     XML data file, charge density, pseudopotentials, collected wavefunctions

     init_run     :      2.76s CPU      3.20s WALL (       1 calls)
     electrons    :     80.67s CPU     84.80s WALL (       1 calls)
     forces       :      0.59s CPU      0.64s WALL (       1 calls)
     stress       :      1.43s CPU      1.56s WALL (       1 calls)

     Called by init_run:
     wfcinit      :      0.71s CPU      0.73s WALL (       1 calls)
     wfcinit:atom :      0.01s CPU      0.01s WALL (      16 calls)
     wfcinit:wfcr :      0.67s CPU      0.69s WALL (      16 calls)
     potinit      :      1.00s CPU      1.33s WALL (       1 calls)
     hinit0       :      0.91s CPU      0.97s WALL (       1 calls)

     Called by electrons:
     c_bands      :     46.11s CPU     47.54s WALL (      28 calls)
     sum_band     :     13.86s CPU     14.28s WALL (      28 calls)
     v_of_rho     :     10.53s CPU     12.70s WALL (      29 calls)
     v_h          :      0.20s CPU      0.22s WALL (      29 calls)
     v_xc         :     11.01s CPU     13.28s WALL (      31 calls)
     newd         :      2.54s CPU      2.68s WALL (      29 calls)
     PAW_pot      :      6.11s CPU      6.27s WALL (      29 calls)
     mix_rho      :      1.22s CPU      1.28s WALL (      28 calls)

     Called by c_bands:
     init_us_2    :      0.55s CPU      0.57s WALL (     944 calls)
     cegterg      :     41.97s CPU     43.37s WALL (     448 calls)

     Called by sum_band:
     sum_band:wei :      0.02s CPU      0.03s WALL (      28 calls)
     sum_band:loo :      8.71s CPU      9.02s WALL (      28 calls)
     sum_band:buf :      0.04s CPU      0.04s WALL (     448 calls)
     sum_band:ini :      0.23s CPU      0.24s WALL (     448 calls)
     sum_band:cal :      0.30s CPU      0.32s WALL (     448 calls)
     sum_band:bec :      0.01s CPU      0.01s WALL (     448 calls)
     addusdens    :      3.88s CPU      3.90s WALL (      28 calls)
                                        0.00s GPU  (      28 calls)
     addusd:skk   :      0.01s CPU      0.00s WALL (      84 calls)
                                        0.00s GPU  (      84 calls)

     Called by *egterg:
     cdiaghg      :      0.80s CPU      0.83s WALL (    1683 calls)
     cegterg:over :      0.76s CPU      0.79s WALL (    1235 calls)
     cegterg:upda :      0.34s CPU      0.35s WALL (    1235 calls)
     cegterg:last :      0.65s CPU      0.66s WALL (     857 calls)
     h_psi        :     39.00s CPU     40.30s WALL (    1699 calls)
     s_psi        :      0.43s CPU      0.44s WALL (    1699 calls)
     g_psi        :      0.11s CPU      0.12s WALL (    1235 calls)

     Called by h_psi:
     h_psi:calbec :      0.73s CPU      0.76s WALL (    1699 calls)
     vloc_psi     :     37.71s CPU     38.97s WALL (    1699 calls)
                                        0.00s GPU  (    1699 calls)
     add_vuspsi   :      0.47s CPU      0.49s WALL (    1699 calls)

     General routines
     calbec       :      1.20s CPU      1.25s WALL (    2419 calls)
     fft          :      6.01s CPU      6.48s WALL (     763 calls)
     ffts         :      0.67s CPU      0.70s WALL (     757 calls)
     fftw         :     42.00s CPU     43.41s WALL (   67974 calls)
     interpolate  :      0.72s CPU      0.75s WALL (      58 calls)

     Parallel routines

     PAW routines
     PAW_pot      :      6.11s CPU      6.27s WALL (      29 calls)
     PAW_symme    :      0.01s CPU      0.01s WALL (      57 calls)

     PWSCF        :   1m25.78s CPU   1m30.64s WALL


   This run was terminated on:  15:39:47  25Jul2026            

=------------------------------------------------------------------------------=
   JOB DONE.
=------------------------------------------------------------------------------=
