
     Program PWSCF v.7.5 starts on 25Jul2026 at 15:46: 8 

     This program is part of the open-source Quantum ESPRESSO suite
     for quantum simulation of materials; please cite
         "P. Giannozzi et al., J. Phys.:Condens. Matter 21 395502 (2009);
         "P. Giannozzi et al., J. Phys.:Condens. Matter 29 465901 (2017);
         "P. Giannozzi et al., J. Chem. Phys. 152 154105 (2020);
          URL http://www.quantum-espresso.org", 
     in publications or presentations arising from this work. More details at
     http://www.quantum-espresso.org/quote

     Parallel version (MPI & OpenMP), running on       6 processor cores
     Number of MPI processes:                 6
     Threads/MPI process:                     1

     MPI processes distributed on     1 nodes
     13081 MiB available memory on the printing compute node when the environment starts

     Reading input from o2.scf.in

     Current dimensions of program PWSCF are:
     Max number of different atomic species (ntypx) = 10
     Max number of k-points (npk) =  40000
     Max angular momentum in pseudopotentials (lmaxx) =  4
     file O.pbe-n-kjpaw_psl.1.0.0.UPF: wavefunction(s)  2S 2P renormalized

     gamma-point specific algorithms are used

     R & G space division:  proc/nbgrp/npool/nimage =       6
     Subspace diagonalization in iterative solution of the eigenvalue problem:
     a serial algorithm will be used


     Parallelization info
     --------------------
     sticks:   dense  smooth     PW     G-vecs:    dense   smooth      PW
     Min        2544    1273    316               236788    83743   10444
     Max        2546    1276    318               236798    83752   10446
     Sum       15273    7645   1901              1420755   502479   62669

     Using Slab Decomposition



     bravais-lattice index     =            1
     lattice parameter (alat)  =      20.0000  a.u.
     unit-cell volume          =    8000.0000 (a.u.)^3
     number of atoms/cell      =            2
     number of atomic types    =            1
     number of electrons       =        12.00 (up:   7.00, down:   5.00)
     number of Kohn-Sham states=           11
     kinetic-energy cutoff     =      60.0000  Ry
     charge density cutoff     =     480.0000  Ry
     scf convergence threshold =      1.0E-08
     mixing beta               =       0.3000
     number of iterations used =            8  plain     mixing
     Exchange-correlation= SLA  PW   PBX  PBC
                           (   1   4   3   4   0   0   0)
     Assuming isolated system, Martyna-Tuckerman method


     celldm(1)=  20.000000  celldm(2)=   0.000000  celldm(3)=   0.000000
     celldm(4)=   0.000000  celldm(5)=   0.000000  celldm(6)=   0.000000

     crystal axes: (cart. coord. in units of alat)
               a(1) = (   1.000000   0.000000   0.000000 )  
               a(2) = (   0.000000   1.000000   0.000000 )  
               a(3) = (   0.000000   0.000000   1.000000 )  

     reciprocal axes: (cart. coord. in units 2 pi/alat)
               b(1) = (  1.000000  0.000000  0.000000 )  
               b(2) = (  0.000000  1.000000  0.000000 )  
               b(3) = (  0.000000  0.000000  1.000000 )  


     PseudoPot. # 1 for O  read from file:
     ./pseudo/O.pbe-n-kjpaw_psl.1.0.0.UPF
     MD5 check sum: e99d9cef9b487d1ca56f5b95ecd0fd7a
     Pseudo is Projector augmented-wave + core cor, Zval =  6.0
     Generated using &quot;atomic&quot; code by A. Dal Corso  v.6.3
     Shape of augmentation charge: PSQ
     Using radial grid of 1095 points,  4 beta functions with: 
                l(1) =   0
                l(2) =   0
                l(3) =   1
                l(4) =   1
     Q(r) pseudized with 0 coefficients 


     atomic species   valence    mass     pseudopotential
     O                 6.00    15.99940     O ( 1.00)

     Starting magnetic structure 
     atomic species   magnetization
     O               0.000

      8 Sym. Ops. (no inversion) found


                                    s                        frac. trans.

      isym =  1     identity                                     

 cryst.   s( 1) = (     1          0          0      )
                  (     0          1          0      )
                  (     0          0          1      )

 cart.    s( 1) = (  1.0000000  0.0000000  0.0000000 )
                  (  0.0000000  1.0000000  0.0000000 )
                  (  0.0000000  0.0000000  1.0000000 )


      isym =  2     180 deg rotation - cart. axis [0,0,1]        

 cryst.   s( 2) = (    -1          0          0      )
                  (     0         -1          0      )
                  (     0          0          1      )

 cart.    s( 2) = ( -1.0000000  0.0000000  0.0000000 )
                  (  0.0000000 -1.0000000  0.0000000 )
                  (  0.0000000  0.0000000  1.0000000 )


      isym =  3      90 deg rotation - cart. axis [0,0,-1]       

 cryst.   s( 3) = (     0         -1          0      )
                  (     1          0          0      )
                  (     0          0          1      )

 cart.    s( 3) = (  0.0000000  1.0000000  0.0000000 )
                  ( -1.0000000  0.0000000  0.0000000 )
                  (  0.0000000  0.0000000  1.0000000 )


      isym =  4      90 deg rotation - cart. axis [0,0,1]        

 cryst.   s( 4) = (     0          1          0      )
                  (    -1          0          0      )
                  (     0          0          1      )

 cart.    s( 4) = (  0.0000000 -1.0000000  0.0000000 )
                  (  1.0000000  0.0000000  0.0000000 )
                  (  0.0000000  0.0000000  1.0000000 )


      isym =  5     inv. 180 deg rotation - cart. axis [0,1,0]   

 cryst.   s( 5) = (     1          0          0      )
                  (     0         -1          0      )
                  (     0          0          1      )

 cart.    s( 5) = (  1.0000000  0.0000000  0.0000000 )
                  (  0.0000000 -1.0000000  0.0000000 )
                  (  0.0000000  0.0000000  1.0000000 )


      isym =  6     inv. 180 deg rotation - cart. axis [1,0,0]   

 cryst.   s( 6) = (    -1          0          0      )
                  (     0          1          0      )
                  (     0          0          1      )

 cart.    s( 6) = ( -1.0000000  0.0000000  0.0000000 )
                  (  0.0000000  1.0000000  0.0000000 )
                  (  0.0000000  0.0000000  1.0000000 )


      isym =  7     inv. 180 deg rotation - cart. axis [1,1,0]   

 cryst.   s( 7) = (     0         -1          0      )
                  (    -1          0          0      )
                  (     0          0          1      )

 cart.    s( 7) = (  0.0000000 -1.0000000  0.0000000 )
                  ( -1.0000000  0.0000000  0.0000000 )
                  (  0.0000000  0.0000000  1.0000000 )


      isym =  8     inv. 180 deg rotation - cart. axis [1,-1,0]  

 cryst.   s( 8) = (     0          1          0      )
                  (     1          0          0      )
                  (     0          0          1      )

 cart.    s( 8) = (  0.0000000  1.0000000  0.0000000 )
                  (  1.0000000  0.0000000  0.0000000 )
                  (  0.0000000  0.0000000  1.0000000 )


     point group C_4v (4mm) 
     there are  5 classes
     the character table:

       E     2C4   C2    2s_v  2s_d 
A_1    1.00  1.00  1.00  1.00  1.00
A_2    1.00  1.00  1.00 -1.00 -1.00
B_1    1.00 -1.00  1.00  1.00 -1.00
B_2    1.00 -1.00  1.00 -1.00  1.00
E      2.00  0.00 -2.00  0.00  0.00

     the symmetry operations in each class and the name of the first element:

     E        1
          identity                                               
     2C4      3    4
           90 deg rotation - cart. axis [0,0,-1]                 
     C2       2
          180 deg rotation - cart. axis [0,0,1]                  
     2s_v     5    6
          inv. 180 deg rotation - cart. axis [0,1,0]             
     2s_d     7    8
          inv. 180 deg rotation - cart. axis [1,1,0]             

   Cartesian axes

     site n.     atom                  positions (alat units)
         1        O      tau(   1) = (   0.0000000   0.0000000   0.0000000  )
         2        O      tau(   2) = (   0.0000000   0.0000000   0.1143284  )

   Crystallographic axes

     site n.     atom                  positions (cryst. coord.)
         1        O      tau(   1) = (  0.0000000  0.0000000  0.0000000  )
         2        O      tau(   2) = (  0.0000000  0.0000000  0.1143284  )

     number of k points=     1  Gaussian smearing, width (Ry)=  0.0010
                       cart. coord. in units 2pi/alat
        k(    1) = (   0.0000000   0.0000000   0.0000000), wk =   1.0000000

                       cryst. coord.
        k(    1) = (   0.0000000   0.0000000   0.0000000), wk =   1.0000000

     Dense  grid:   710378 G-vectors     FFT dimensions: ( 144, 144, 144)

     Smooth grid:   251240 G-vectors     FFT dimensions: ( 100, 100, 100)

     Dynamical RAM for                 wfc:       0.88 MB

     Dynamical RAM for     wfc (w. buffer):       2.63 MB

     Dynamical RAM for           str. fact:       1.81 MB

     Dynamical RAM for           local pot:       0.00 MB

     Dynamical RAM for          nlocal pot:       1.28 MB

     Dynamical RAM for                qrad:       0.50 MB

     Dynamical RAM for          rho,v,vnew:      33.62 MB

     Dynamical RAM for               rhoin:      11.21 MB

     Dynamical RAM for            rho*nmix:      57.81 MB

     Dynamical RAM for           G-vectors:       7.09 MB

     Dynamical RAM for          h,s,v(r/c):       0.01 MB

     Dynamical RAM for          <psi|beta>:       0.00 MB

     Dynamical RAM for                 psi:       1.76 MB

     Dynamical RAM for                hpsi:       1.76 MB

     Dynamical RAM for                spsi:       1.76 MB

     Dynamical RAM for      wfcinit/wfcrot:       1.76 MB

     Dynamical RAM for           addusdens:      83.10 MB

     Dynamical RAM for          addusforce:      86.72 MB

     Estimated static dynamical RAM per process >      84.54 MB

     Estimated max dynamical RAM per process >     229.07 MB

     Estimated total dynamical RAM >       1.34 GB
     Generating pointlists ...
     new r_m :   0.0472 (alat units)  0.9432 (a.u.) for type    1

     Initial potential from superposition of free atoms

     starting charge      12.0000, renormalised to      12.0000

     negative rho (up, down):  6.595E-04 6.595E-04
     Starting wfcs are    8 randomized atomic wfcs +    3 random wfcs
     Checking if some PAW data can be deallocated... 

     total cpu time spent up to now is        4.7 secs

     per-process dynamical memory:   119.5 Mb

     Self-consistent Calculation

     iteration #  1     ecut=    60.00 Ry     beta= 0.30
     Davidson diagonalization with overlap

---- Real-time Memory Report at c_bands before calling an iterative solver
           210 MiB given to the printing process from OS
           116 MiB allocation reported by mallinfo(arena+hblkhd)
         12478 MiB available memory on the node where the printing process lives
------------------
     ethr =  1.00E-02,  avg # of iterations =  9.0

     negative rho (up, down):  7.341E-04 6.142E-04

     total cpu time spent up to now is        8.5 secs

     total energy              =     -82.97303763 Ry
     estimated scf accuracy    <       0.12161024 Ry

     total magnetization       =     2.00 Bohr mag/cell
     absolute magnetization    =     2.00 Bohr mag/cell

     iteration #  2     ecut=    60.00 Ry     beta= 0.30
     Davidson diagonalization with overlap

---- Real-time Memory Report at c_bands before calling an iterative solver
           239 MiB given to the printing process from OS
           148 MiB allocation reported by mallinfo(arena+hblkhd)
         12308 MiB available memory on the node where the printing process lives
------------------
     ethr =  1.01E-03,  avg # of iterations =  4.5

     negative rho (up, down):  9.094E-04 7.200E-04

     total cpu time spent up to now is       11.5 secs

     total energy              =     -83.02220580 Ry
     estimated scf accuracy    <       0.05053936 Ry

     total magnetization       =     2.00 Bohr mag/cell
     absolute magnetization    =     2.01 Bohr mag/cell

     iteration #  3     ecut=    60.00 Ry     beta= 0.30
     Davidson diagonalization with overlap

---- Real-time Memory Report at c_bands before calling an iterative solver
           241 MiB given to the printing process from OS
           150 MiB allocation reported by mallinfo(arena+hblkhd)
         12285 MiB available memory on the node where the printing process lives
------------------
     ethr =  4.21E-04,  avg # of iterations =  9.5

     negative rho (up, down):  9.722E-04 7.165E-04

     total cpu time spent up to now is       14.6 secs

     total energy              =     -83.03419517 Ry
     estimated scf accuracy    <       0.00386958 Ry

     total magnetization       =     2.00 Bohr mag/cell
     absolute magnetization    =     2.02 Bohr mag/cell

     iteration #  4     ecut=    60.00 Ry     beta= 0.30
     Davidson diagonalization with overlap

---- Real-time Memory Report at c_bands before calling an iterative solver
           244 MiB given to the printing process from OS
           153 MiB allocation reported by mallinfo(arena+hblkhd)
         12274 MiB available memory on the node where the printing process lives
------------------
     c_bands:  1 eigenvalues not converged
     ethr =  3.22E-05,  avg # of iterations = 17.0

     negative rho (up, down):  1.007E-03 7.028E-04

     total cpu time spent up to now is       18.3 secs

     total energy              =     -83.03758159 Ry
     estimated scf accuracy    <       0.00202480 Ry

     total magnetization       =     2.00 Bohr mag/cell
     absolute magnetization    =     2.03 Bohr mag/cell

     iteration #  5     ecut=    60.00 Ry     beta= 0.30
     Davidson diagonalization with overlap

---- Real-time Memory Report at c_bands before calling an iterative solver
           246 MiB given to the printing process from OS
           155 MiB allocation reported by mallinfo(arena+hblkhd)
         12251 MiB available memory on the node where the printing process lives
------------------
     ethr =  1.69E-05,  avg # of iterations =  8.5

     negative rho (up, down):  1.035E-03 6.875E-04

     total cpu time spent up to now is       21.4 secs

     total energy              =     -83.03802071 Ry
     estimated scf accuracy    <       0.00079399 Ry

     total magnetization       =     2.00 Bohr mag/cell
     absolute magnetization    =     2.04 Bohr mag/cell

     iteration #  6     ecut=    60.00 Ry     beta= 0.30
     Davidson diagonalization with overlap

---- Real-time Memory Report at c_bands before calling an iterative solver
           249 MiB given to the printing process from OS
           158 MiB allocation reported by mallinfo(arena+hblkhd)
         12234 MiB available memory on the node where the printing process lives
------------------
     ethr =  6.62E-06,  avg # of iterations = 10.0

     negative rho (up, down):  1.046E-03 6.633E-04

     total cpu time spent up to now is       24.5 secs

     total energy              =     -83.03818457 Ry
     estimated scf accuracy    <       0.00002193 Ry

     total magnetization       =     2.00 Bohr mag/cell
     absolute magnetization    =     2.04 Bohr mag/cell

     iteration #  7     ecut=    60.00 Ry     beta= 0.30
     Davidson diagonalization with overlap

---- Real-time Memory Report at c_bands before calling an iterative solver
           252 MiB given to the printing process from OS
           160 MiB allocation reported by mallinfo(arena+hblkhd)
         12217 MiB available memory on the node where the printing process lives
------------------
     c_bands:  2 eigenvalues not converged
     ethr =  1.83E-07,  avg # of iterations = 19.5

     negative rho (up, down):  1.057E-03 6.539E-04

     total cpu time spent up to now is       27.9 secs

     total energy              =     -83.03823673 Ry
     estimated scf accuracy    <       0.00001777 Ry

     total magnetization       =     2.00 Bohr mag/cell
     absolute magnetization    =     2.04 Bohr mag/cell

     iteration #  8     ecut=    60.00 Ry     beta= 0.30
     Davidson diagonalization with overlap

---- Real-time Memory Report at c_bands before calling an iterative solver
           254 MiB given to the printing process from OS
           163 MiB allocation reported by mallinfo(arena+hblkhd)
         12196 MiB available memory on the node where the printing process lives
------------------
     ethr =  1.48E-07,  avg # of iterations =  3.5

     negative rho (up, down):  1.063E-03 6.450E-04

     total cpu time spent up to now is       30.7 secs

     total energy              =     -83.03824187 Ry
     estimated scf accuracy    <       0.00000716 Ry

     total magnetization       =     2.00 Bohr mag/cell
     absolute magnetization    =     2.05 Bohr mag/cell

     iteration #  9     ecut=    60.00 Ry     beta= 0.30
     Davidson diagonalization with overlap

---- Real-time Memory Report at c_bands before calling an iterative solver
           257 MiB given to the printing process from OS
           165 MiB allocation reported by mallinfo(arena+hblkhd)
         12180 MiB available memory on the node where the printing process lives
------------------
     ethr =  5.96E-08,  avg # of iterations =  3.0

     negative rho (up, down):  1.070E-03 6.409E-04

     total cpu time spent up to now is       33.3 secs

     total energy              =     -83.03824398 Ry
     estimated scf accuracy    <       0.00000031 Ry

     total magnetization       =     2.00 Bohr mag/cell
     absolute magnetization    =     2.05 Bohr mag/cell

     iteration # 10     ecut=    60.00 Ry     beta= 0.30
     Davidson diagonalization with overlap

---- Real-time Memory Report at c_bands before calling an iterative solver
           259 MiB given to the printing process from OS
           168 MiB allocation reported by mallinfo(arena+hblkhd)
         12159 MiB available memory on the node where the printing process lives
------------------
     ethr =  2.57E-09,  avg # of iterations =  6.5

     negative rho (up, down):  1.074E-03 6.380E-04

     total cpu time spent up to now is       36.0 secs

     total energy              =     -83.03824488 Ry
     estimated scf accuracy    <       0.00000030 Ry

     total magnetization       =     2.00 Bohr mag/cell
     absolute magnetization    =     2.05 Bohr mag/cell

     iteration # 11     ecut=    60.00 Ry     beta= 0.30
     Davidson diagonalization with overlap

---- Real-time Memory Report at c_bands before calling an iterative solver
           259 MiB given to the printing process from OS
           168 MiB allocation reported by mallinfo(arena+hblkhd)
         12159 MiB available memory on the node where the printing process lives
------------------
     ethr =  2.49E-09,  avg # of iterations =  2.0

     negative rho (up, down):  1.078E-03 6.362E-04

     total cpu time spent up to now is       38.9 secs

     total energy              =     -83.03824492 Ry
     estimated scf accuracy    <       0.00000006 Ry

     total magnetization       =     2.00 Bohr mag/cell
     absolute magnetization    =     2.05 Bohr mag/cell

     iteration # 12     ecut=    60.00 Ry     beta= 0.30
     Davidson diagonalization with overlap

---- Real-time Memory Report at c_bands before calling an iterative solver
           259 MiB given to the printing process from OS
           168 MiB allocation reported by mallinfo(arena+hblkhd)
         12163 MiB available memory on the node where the printing process lives
------------------
     ethr =  4.92E-10,  avg # of iterations =  4.0

     negative rho (up, down):  1.080E-03 6.351E-04

     total cpu time spent up to now is       42.2 secs

     total energy              =     -83.03824493 Ry
     estimated scf accuracy    <       0.00000004 Ry

     total magnetization       =     2.00 Bohr mag/cell
     absolute magnetization    =     2.05 Bohr mag/cell

     iteration # 13     ecut=    60.00 Ry     beta= 0.30
     Davidson diagonalization with overlap

---- Real-time Memory Report at c_bands before calling an iterative solver
           259 MiB given to the printing process from OS
           168 MiB allocation reported by mallinfo(arena+hblkhd)
         12158 MiB available memory on the node where the printing process lives
------------------
     ethr =  3.24E-10,  avg # of iterations =  3.0

     negative rho (up, down):  1.086E-03 6.330E-04

     Magnetic moment per site  (integrated on atomic sphere of radius R)
     atom   1 (R=0.047)  charge=  2.9151  magn=  0.5606
     atom   2 (R=0.047)  charge=  2.9194  magn=  0.5609

     total cpu time spent up to now is       45.1 secs

     End of self-consistent calculation

 ------ SPIN UP ------------


          k = 0.0000 0.0000 0.0000 ( 31335 PWs)   bands (ev):

   -32.9961 -20.5458 -13.5460 -13.5460 -13.5275  -6.8480  -6.8480  -0.4686
     0.6281   0.7924   0.8230

     occupation numbers 
     1.0000   1.0000   1.0000   1.0000   1.0000   1.0000   1.0000   0.0000
     0.0000   0.0000   0.0000

 ------ SPIN DOWN ----------


          k = 0.0000 0.0000 0.0000 ( 31335 PWs)   bands (ev):

   -31.8068 -18.7511 -12.6244 -11.6799 -11.6799  -4.5350  -4.5349  -0.3729
     0.8118   0.8948   0.9200

     occupation numbers 
     1.0000   1.0000   1.0000   1.0000   1.0000   0.0000   0.0000   0.0000
     0.0000   0.0000   0.0000

     the spin up/dw Fermi energies are    -3.2175   -7.4910 ev

!    total energy              =     -83.03824491 Ry
     total all-electron energy =      -300.732025 Ry
     estimated scf accuracy    <          4.9E-09 Ry
     smearing contrib. (-TS)   =      -0.00000000 Ry
     internal energy E=F+TS    =     -83.03824491 Ry

     The total energy is F=E-TS. E is the sum of the following terms:
     one-electron contribution =    -165.97098778 Ry
     hartree contribution      =      85.17784339 Ry
     xc contribution           =     -14.53727036 Ry
     ewald contribution        =      31.48823073 Ry
     one-center paw contrib.   =     -19.19606090 Ry
      -> PAW hartree energy AE =      25.58208234 Ry
      -> PAW hartree energy PS =     -25.54849356 Ry
      -> PAW xc energy AE      =     -16.63984124 Ry
      -> PAW xc energy PS      =       7.00822140 Ry
      -> total E_H with PAW    =      85.21143217 Ry
      -> total E_XC with PAW   =     -24.16889020 Ry

     total magnetization       =     2.00 Bohr mag/cell
     absolute magnetization    =     2.05 Bohr mag/cell

     convergence has been achieved in  13 iterations

     negative rho (up, down):  1.086E-03 6.330E-04

     Forces acting on atoms (cartesian axes, Ry/au):

     atom    1 type  1   force =     0.00000000    0.00000000   -0.05450012
     atom    2 type  1   force =     0.00000000    0.00000000    0.05450012
     The Martyna-Tuckerman correction term to forces
     atom    1 type  1   force =     0.00000006   -0.00000007    0.00005827
     atom    2 type  1   force =     0.00000006   -0.00000007   -0.00005866
     The non-local contrib.  to forces
     atom    1 type  1   force =     0.00000000    0.00000000    2.76479758
     atom    2 type  1   force =     0.00000000    0.00000000   -2.76485005
     The ionic contribution  to forces
     atom    1 type  1   force =    -0.00000000   -0.00000000  -13.68139459
     atom    2 type  1   force =    -0.00000000   -0.00000000   13.68139459
     The local contribution  to forces
     atom    1 type  1   force =     0.00002371   -0.00004123   10.88495416
     atom    2 type  1   force =     0.00002587   -0.00000863  -10.88500368
     The core correction contribution to forces
     atom    1 type  1   force =     0.00000034    0.00000020   -0.02299590
     atom    2 type  1   force =     0.00000004   -0.00000008    0.02299828
     The Hubbard contrib.    to forces
     atom    1 type  1   force =     0.00000000    0.00000000    0.00000000
     atom    2 type  1   force =     0.00000000    0.00000000    0.00000000
     The SCF correction term to forces
     atom    1 type  1   force =    -0.00002898    0.00005186    0.00004562
     atom    2 type  1   force =    -0.00002347    0.00002866   -0.00001511

     Total force =     0.077075     Total SCF correction =     0.000085

     Writing all to output data dir ./tmp/o2.save/ :
     XML data file, charge density, pseudopotentials, collected wavefunctions

     init_run     :      3.35s CPU      4.52s WALL (       1 calls)
     electrons    :     34.24s CPU     40.57s WALL (       1 calls)
     forces       :      1.32s CPU      1.71s WALL (       1 calls)

     Called by init_run:
     wfcinit      :      0.22s CPU      0.24s WALL (       1 calls)
     wfcinit:atom :      0.00s CPU      0.00s WALL (       2 calls)
     wfcinit:wfcr :      0.21s CPU      0.23s WALL (       2 calls)
     potinit      :      1.49s CPU      2.28s WALL (       1 calls)
     hinit0       :      0.97s CPU      1.09s WALL (       1 calls)

     Called by electrons:
     c_bands      :     10.30s CPU     10.71s WALL (      13 calls)
     sum_band     :      5.70s CPU      7.35s WALL (      13 calls)
     v_of_rho     :     11.57s CPU     14.90s WALL (      14 calls)
     v_h          :      0.76s CPU      0.82s WALL (      14 calls)
     v_xc         :     11.58s CPU     15.07s WALL (      15 calls)
     newd         :      2.91s CPU      4.47s WALL (      14 calls)
     PAW_pot      :      1.27s CPU      1.28s WALL (      14 calls)
     mix_rho      :      1.80s CPU      1.87s WALL (      13 calls)

     Called by c_bands:
     init_us_2    :      0.09s CPU      0.10s WALL (      56 calls)
     regterg      :     10.02s CPU     10.42s WALL (      26 calls)

     Called by sum_band:
     sum_band:wei :      0.00s CPU      0.00s WALL (      13 calls)
     sum_band:loo :      1.44s CPU      1.51s WALL (      13 calls)
     sum_band:buf :      0.01s CPU      0.01s WALL (      26 calls)
     sum_band:ini :      0.06s CPU      0.06s WALL (      26 calls)
     sum_band:cal :      0.12s CPU      0.12s WALL (      26 calls)
     sum_band:bec :      0.00s CPU      0.00s WALL (      26 calls)
     addusdens    :      3.02s CPU      4.55s WALL (      13 calls)
                                        0.00s GPU  (      13 calls)
     addusd:skk   :      0.02s CPU      0.02s WALL (      13 calls)
                                        0.00s GPU  (      13 calls)

     Called by *egterg:
     rdiaghg      :      0.08s CPU      0.08s WALL (     226 calls)
     regterg:over :      0.66s CPU      0.67s WALL (     200 calls)
     regterg:upda :      0.08s CPU      0.08s WALL (     200 calls)
     regterg:last :      0.17s CPU      0.17s WALL (      93 calls)
     h_psi        :      8.49s CPU      8.88s WALL (     228 calls)
     s_psi        :      0.05s CPU      0.06s WALL (     228 calls)
     g_psi        :      0.04s CPU      0.04s WALL (     200 calls)

     Called by h_psi:
     h_psi:calbec :      0.50s CPU      0.52s WALL (     228 calls)
     vloc_psi     :      7.88s CPU      8.25s WALL (     228 calls)
                                        0.00s GPU  (     228 calls)
     add_vuspsi   :      0.08s CPU      0.08s WALL (     228 calls)

     General routines
     calbec       :      0.63s CPU      0.65s WALL (     262 calls)
     fft          :     10.49s CPU     11.56s WALL (     266 calls)
     ffts         :      0.69s CPU      0.73s WALL (      41 calls)
     fftw         :      7.89s CPU      8.28s WALL (    1426 calls)
     interpolate  :      1.66s CPU      1.75s WALL (      28 calls)

     Parallel routines

     PAW routines
     PAW_pot      :      1.27s CPU      1.28s WALL (      14 calls)
     PAW_symme    :      0.08s CPU      0.08s WALL (      27 calls)

     PWSCF        :     39.15s CPU     47.18s WALL


   This run was terminated on:  15:46:55  25Jul2026            

=------------------------------------------------------------------------------=
   JOB DONE.
=------------------------------------------------------------------------------=
