
     Program PWSCF v.7.5 starts on 25Jul2026 at 15:46:57 

     This program is part of the open-source Quantum ESPRESSO suite
     for quantum simulation of materials; please cite
         "P. Giannozzi et al., J. Phys.:Condens. Matter 21 395502 (2009);
         "P. Giannozzi et al., J. Phys.:Condens. Matter 29 465901 (2017);
         "P. Giannozzi et al., J. Chem. Phys. 152 154105 (2020);
          URL http://www.quantum-espresso.org", 
     in publications or presentations arising from this work. More details at
     http://www.quantum-espresso.org/quote

     Parallel version (MPI & OpenMP), running on       6 processor cores
     Number of MPI processes:                 6
     Threads/MPI process:                     1

     MPI processes distributed on     1 nodes
     12997 MiB available memory on the printing compute node when the environment starts

     Reading input from o_atom.scf.in

     Current dimensions of program PWSCF are:
     Max number of different atomic species (ntypx) = 10
     Max number of k-points (npk) =  40000
     Max angular momentum in pseudopotentials (lmaxx) =  4
     file O.pbe-n-kjpaw_psl.1.0.0.UPF: wavefunction(s)  2S 2P renormalized

     gamma-point specific algorithms are used

     R & G space division:  proc/nbgrp/npool/nimage =       6
     Subspace diagonalization in iterative solution of the eigenvalue problem:
     a serial algorithm will be used


     Parallelization info
     --------------------
     sticks:   dense  smooth     PW     G-vecs:    dense   smooth      PW
     Min        2544    1273    316               236788    83743   10444
     Max        2546    1276    318               236798    83752   10446
     Sum       15273    7645   1901              1420755   502479   62669

     Using Slab Decomposition



     bravais-lattice index     =            1
     lattice parameter (alat)  =      20.0000  a.u.
     unit-cell volume          =    8000.0000 (a.u.)^3
     number of atoms/cell      =            1
     number of atomic types    =            1
     number of electrons       =         6.00 (up:   4.00, down:   2.00)
     number of Kohn-Sham states=            8
     kinetic-energy cutoff     =      60.0000  Ry
     charge density cutoff     =     480.0000  Ry
     scf convergence threshold =      1.0E-08
     mixing beta               =       0.3000
     number of iterations used =            8  plain     mixing
     Exchange-correlation= SLA  PW   PBX  PBC
                           (   1   4   3   4   0   0   0)
     Assuming isolated system, Martyna-Tuckerman method


     celldm(1)=  20.000000  celldm(2)=   0.000000  celldm(3)=   0.000000
     celldm(4)=   0.000000  celldm(5)=   0.000000  celldm(6)=   0.000000

     crystal axes: (cart. coord. in units of alat)
               a(1) = (   1.000000   0.000000   0.000000 )  
               a(2) = (   0.000000   1.000000   0.000000 )  
               a(3) = (   0.000000   0.000000   1.000000 )  

     reciprocal axes: (cart. coord. in units 2 pi/alat)
               b(1) = (  1.000000  0.000000  0.000000 )  
               b(2) = (  0.000000  1.000000  0.000000 )  
               b(3) = (  0.000000  0.000000  1.000000 )  


     PseudoPot. # 1 for O  read from file:
     ./pseudo/O.pbe-n-kjpaw_psl.1.0.0.UPF
     MD5 check sum: e99d9cef9b487d1ca56f5b95ecd0fd7a
     Pseudo is Projector augmented-wave + core cor, Zval =  6.0
     Generated using &quot;atomic&quot; code by A. Dal Corso  v.6.3
     Shape of augmentation charge: PSQ
     Using radial grid of 1095 points,  4 beta functions with: 
                l(1) =   0
                l(2) =   0
                l(3) =   1
                l(4) =   1
     Q(r) pseudized with 0 coefficients 


     atomic species   valence    mass     pseudopotential
     O                 6.00    15.99940     O ( 1.00)

     Starting magnetic structure 
     atomic species   magnetization
     O               0.000

     48 Sym. Ops., with inversion, found


                                    s                        frac. trans.

      isym =  1     identity                                     

 cryst.   s( 1) = (     1          0          0      )
                  (     0          1          0      )
                  (     0          0          1      )

 cart.    s( 1) = (  1.0000000  0.0000000  0.0000000 )
                  (  0.0000000  1.0000000  0.0000000 )
                  (  0.0000000  0.0000000  1.0000000 )


      isym =  2     180 deg rotation - cart. axis [0,0,1]        

 cryst.   s( 2) = (    -1          0          0      )
                  (     0         -1          0      )
                  (     0          0          1      )

 cart.    s( 2) = ( -1.0000000  0.0000000  0.0000000 )
                  (  0.0000000 -1.0000000  0.0000000 )
                  (  0.0000000  0.0000000  1.0000000 )


      isym =  3     180 deg rotation - cart. axis [0,1,0]        

 cryst.   s( 3) = (    -1          0          0      )
                  (     0          1          0      )
                  (     0          0         -1      )

 cart.    s( 3) = ( -1.0000000  0.0000000  0.0000000 )
                  (  0.0000000  1.0000000  0.0000000 )
                  (  0.0000000  0.0000000 -1.0000000 )


      isym =  4     180 deg rotation - cart. axis [1,0,0]        

 cryst.   s( 4) = (     1          0          0      )
                  (     0         -1          0      )
                  (     0          0         -1      )

 cart.    s( 4) = (  1.0000000  0.0000000  0.0000000 )
                  (  0.0000000 -1.0000000  0.0000000 )
                  (  0.0000000  0.0000000 -1.0000000 )


      isym =  5     180 deg rotation - cart. axis [1,1,0]        

 cryst.   s( 5) = (     0          1          0      )
                  (     1          0          0      )
                  (     0          0         -1      )

 cart.    s( 5) = (  0.0000000  1.0000000  0.0000000 )
                  (  1.0000000  0.0000000  0.0000000 )
                  (  0.0000000  0.0000000 -1.0000000 )


      isym =  6     180 deg rotation - cart. axis [1,-1,0]       

 cryst.   s( 6) = (     0         -1          0      )
                  (    -1          0          0      )
                  (     0          0         -1      )

 cart.    s( 6) = (  0.0000000 -1.0000000  0.0000000 )
                  ( -1.0000000  0.0000000  0.0000000 )
                  (  0.0000000  0.0000000 -1.0000000 )


      isym =  7      90 deg rotation - cart. axis [0,0,-1]       

 cryst.   s( 7) = (     0         -1          0      )
                  (     1          0          0      )
                  (     0          0          1      )

 cart.    s( 7) = (  0.0000000  1.0000000  0.0000000 )
                  ( -1.0000000  0.0000000  0.0000000 )
                  (  0.0000000  0.0000000  1.0000000 )


      isym =  8      90 deg rotation - cart. axis [0,0,1]        

 cryst.   s( 8) = (     0          1          0      )
                  (    -1          0          0      )
                  (     0          0          1      )

 cart.    s( 8) = (  0.0000000 -1.0000000  0.0000000 )
                  (  1.0000000  0.0000000  0.0000000 )
                  (  0.0000000  0.0000000  1.0000000 )


      isym =  9     180 deg rotation - cart. axis [1,0,1]        

 cryst.   s( 9) = (     0          0          1      )
                  (     0         -1          0      )
                  (     1          0          0      )

 cart.    s( 9) = (  0.0000000  0.0000000  1.0000000 )
                  (  0.0000000 -1.0000000  0.0000000 )
                  (  1.0000000  0.0000000  0.0000000 )


      isym = 10     180 deg rotation - cart. axis [-1,0,1]       

 cryst.   s(10) = (     0          0         -1      )
                  (     0         -1          0      )
                  (    -1          0          0      )

 cart.    s(10) = (  0.0000000  0.0000000 -1.0000000 )
                  (  0.0000000 -1.0000000  0.0000000 )
                  ( -1.0000000  0.0000000  0.0000000 )


      isym = 11      90 deg rotation - cart. axis [0,1,0]        

 cryst.   s(11) = (     0          0         -1      )
                  (     0          1          0      )
                  (     1          0          0      )

 cart.    s(11) = (  0.0000000  0.0000000  1.0000000 )
                  (  0.0000000  1.0000000  0.0000000 )
                  ( -1.0000000  0.0000000  0.0000000 )


      isym = 12      90 deg rotation - cart. axis [0,-1,0]       

 cryst.   s(12) = (     0          0          1      )
                  (     0          1          0      )
                  (    -1          0          0      )

 cart.    s(12) = (  0.0000000  0.0000000 -1.0000000 )
                  (  0.0000000  1.0000000  0.0000000 )
                  (  1.0000000  0.0000000  0.0000000 )


      isym = 13     180 deg rotation - cart. axis [0,1,1]        

 cryst.   s(13) = (    -1          0          0      )
                  (     0          0          1      )
                  (     0          1          0      )

 cart.    s(13) = ( -1.0000000  0.0000000  0.0000000 )
                  (  0.0000000  0.0000000  1.0000000 )
                  (  0.0000000  1.0000000  0.0000000 )


      isym = 14     180 deg rotation - cart. axis [0,1,-1]       

 cryst.   s(14) = (    -1          0          0      )
                  (     0          0         -1      )
                  (     0         -1          0      )

 cart.    s(14) = ( -1.0000000  0.0000000  0.0000000 )
                  (  0.0000000  0.0000000 -1.0000000 )
                  (  0.0000000 -1.0000000  0.0000000 )


      isym = 15      90 deg rotation - cart. axis [-1,0,0]       

 cryst.   s(15) = (     1          0          0      )
                  (     0          0         -1      )
                  (     0          1          0      )

 cart.    s(15) = (  1.0000000  0.0000000  0.0000000 )
                  (  0.0000000  0.0000000  1.0000000 )
                  (  0.0000000 -1.0000000  0.0000000 )


      isym = 16      90 deg rotation - cart. axis [1,0,0]        

 cryst.   s(16) = (     1          0          0      )
                  (     0          0          1      )
                  (     0         -1          0      )

 cart.    s(16) = (  1.0000000  0.0000000  0.0000000 )
                  (  0.0000000  0.0000000 -1.0000000 )
                  (  0.0000000  1.0000000  0.0000000 )


      isym = 17     120 deg rotation - cart. axis [-1,-1,-1]     

 cryst.   s(17) = (     0          0          1      )
                  (     1          0          0      )
                  (     0          1          0      )

 cart.    s(17) = (  0.0000000  1.0000000  0.0000000 )
                  (  0.0000000  0.0000000  1.0000000 )
                  (  1.0000000  0.0000000  0.0000000 )


      isym = 18     120 deg rotation - cart. axis [-1,1,1]       

 cryst.   s(18) = (     0          0         -1      )
                  (    -1          0          0      )
                  (     0          1          0      )

 cart.    s(18) = (  0.0000000 -1.0000000  0.0000000 )
                  (  0.0000000  0.0000000  1.0000000 )
                  ( -1.0000000  0.0000000  0.0000000 )


      isym = 19     120 deg rotation - cart. axis [1,1,-1]       

 cryst.   s(19) = (     0          0         -1      )
                  (     1          0          0      )
                  (     0         -1          0      )

 cart.    s(19) = (  0.0000000  1.0000000  0.0000000 )
                  (  0.0000000  0.0000000 -1.0000000 )
                  ( -1.0000000  0.0000000  0.0000000 )


      isym = 20     120 deg rotation - cart. axis [1,-1,1]       

 cryst.   s(20) = (     0          0          1      )
                  (    -1          0          0      )
                  (     0         -1          0      )

 cart.    s(20) = (  0.0000000 -1.0000000  0.0000000 )
                  (  0.0000000  0.0000000 -1.0000000 )
                  (  1.0000000  0.0000000  0.0000000 )


      isym = 21     120 deg rotation - cart. axis [1,1,1]        

 cryst.   s(21) = (     0          1          0      )
                  (     0          0          1      )
                  (     1          0          0      )

 cart.    s(21) = (  0.0000000  0.0000000  1.0000000 )
                  (  1.0000000  0.0000000  0.0000000 )
                  (  0.0000000  1.0000000  0.0000000 )


      isym = 22     120 deg rotation - cart. axis [-1,1,-1]      

 cryst.   s(22) = (     0         -1          0      )
                  (     0          0         -1      )
                  (     1          0          0      )

 cart.    s(22) = (  0.0000000  0.0000000  1.0000000 )
                  ( -1.0000000  0.0000000  0.0000000 )
                  (  0.0000000 -1.0000000  0.0000000 )


      isym = 23     120 deg rotation - cart. axis [1,-1,-1]      

 cryst.   s(23) = (     0         -1          0      )
                  (     0          0          1      )
                  (    -1          0          0      )

 cart.    s(23) = (  0.0000000  0.0000000 -1.0000000 )
                  ( -1.0000000  0.0000000  0.0000000 )
                  (  0.0000000  1.0000000  0.0000000 )


      isym = 24     120 deg rotation - cart. axis [-1,-1,1]      

 cryst.   s(24) = (     0          1          0      )
                  (     0          0         -1      )
                  (    -1          0          0      )

 cart.    s(24) = (  0.0000000  0.0000000 -1.0000000 )
                  (  1.0000000  0.0000000  0.0000000 )
                  (  0.0000000 -1.0000000  0.0000000 )


      isym = 25     inversion                                    

 cryst.   s(25) = (    -1          0          0      )
                  (     0         -1          0      )
                  (     0          0         -1      )

 cart.    s(25) = ( -1.0000000  0.0000000  0.0000000 )
                  (  0.0000000 -1.0000000  0.0000000 )
                  (  0.0000000  0.0000000 -1.0000000 )


      isym = 26     inv. 180 deg rotation - cart. axis [0,0,1]   

 cryst.   s(26) = (     1          0          0      )
                  (     0          1          0      )
                  (     0          0         -1      )

 cart.    s(26) = (  1.0000000  0.0000000  0.0000000 )
                  (  0.0000000  1.0000000  0.0000000 )
                  (  0.0000000  0.0000000 -1.0000000 )


      isym = 27     inv. 180 deg rotation - cart. axis [0,1,0]   

 cryst.   s(27) = (     1          0          0      )
                  (     0         -1          0      )
                  (     0          0          1      )

 cart.    s(27) = (  1.0000000  0.0000000  0.0000000 )
                  (  0.0000000 -1.0000000  0.0000000 )
                  (  0.0000000  0.0000000  1.0000000 )


      isym = 28     inv. 180 deg rotation - cart. axis [1,0,0]   

 cryst.   s(28) = (    -1          0          0      )
                  (     0          1          0      )
                  (     0          0          1      )

 cart.    s(28) = ( -1.0000000  0.0000000  0.0000000 )
                  (  0.0000000  1.0000000  0.0000000 )
                  (  0.0000000  0.0000000  1.0000000 )


      isym = 29     inv. 180 deg rotation - cart. axis [1,1,0]   

 cryst.   s(29) = (     0         -1          0      )
                  (    -1          0          0      )
                  (     0          0          1      )

 cart.    s(29) = (  0.0000000 -1.0000000  0.0000000 )
                  ( -1.0000000  0.0000000  0.0000000 )
                  (  0.0000000  0.0000000  1.0000000 )


      isym = 30     inv. 180 deg rotation - cart. axis [1,-1,0]  

 cryst.   s(30) = (     0          1          0      )
                  (     1          0          0      )
                  (     0          0          1      )

 cart.    s(30) = (  0.0000000  1.0000000  0.0000000 )
                  (  1.0000000  0.0000000  0.0000000 )
                  (  0.0000000  0.0000000  1.0000000 )


      isym = 31     inv.  90 deg rotation - cart. axis [0,0,-1]  

 cryst.   s(31) = (     0          1          0      )
                  (    -1          0          0      )
                  (     0          0         -1      )

 cart.    s(31) = (  0.0000000 -1.0000000  0.0000000 )
                  (  1.0000000  0.0000000  0.0000000 )
                  (  0.0000000  0.0000000 -1.0000000 )


      isym = 32     inv.  90 deg rotation - cart. axis [0,0,1]   

 cryst.   s(32) = (     0         -1          0      )
                  (     1          0          0      )
                  (     0          0         -1      )

 cart.    s(32) = (  0.0000000  1.0000000  0.0000000 )
                  ( -1.0000000  0.0000000  0.0000000 )
                  (  0.0000000  0.0000000 -1.0000000 )


      isym = 33     inv. 180 deg rotation - cart. axis [1,0,1]   

 cryst.   s(33) = (     0          0         -1      )
                  (     0          1          0      )
                  (    -1          0          0      )

 cart.    s(33) = (  0.0000000  0.0000000 -1.0000000 )
                  (  0.0000000  1.0000000  0.0000000 )
                  ( -1.0000000  0.0000000  0.0000000 )


      isym = 34     inv. 180 deg rotation - cart. axis [-1,0,1]  

 cryst.   s(34) = (     0          0          1      )
                  (     0          1          0      )
                  (     1          0          0      )

 cart.    s(34) = (  0.0000000  0.0000000  1.0000000 )
                  (  0.0000000  1.0000000  0.0000000 )
                  (  1.0000000  0.0000000  0.0000000 )


      isym = 35     inv.  90 deg rotation - cart. axis [0,1,0]   

 cryst.   s(35) = (     0          0          1      )
                  (     0         -1          0      )
                  (    -1          0          0      )

 cart.    s(35) = (  0.0000000  0.0000000 -1.0000000 )
                  (  0.0000000 -1.0000000  0.0000000 )
                  (  1.0000000  0.0000000  0.0000000 )


      isym = 36     inv.  90 deg rotation - cart. axis [0,-1,0]  

 cryst.   s(36) = (     0          0         -1      )
                  (     0         -1          0      )
                  (     1          0          0      )

 cart.    s(36) = (  0.0000000  0.0000000  1.0000000 )
                  (  0.0000000 -1.0000000  0.0000000 )
                  ( -1.0000000  0.0000000  0.0000000 )


      isym = 37     inv. 180 deg rotation - cart. axis [0,1,1]   

 cryst.   s(37) = (     1          0          0      )
                  (     0          0         -1      )
                  (     0         -1          0      )

 cart.    s(37) = (  1.0000000  0.0000000  0.0000000 )
                  (  0.0000000  0.0000000 -1.0000000 )
                  (  0.0000000 -1.0000000  0.0000000 )


      isym = 38     inv. 180 deg rotation - cart. axis [0,1,-1]  

 cryst.   s(38) = (     1          0          0      )
                  (     0          0          1      )
                  (     0          1          0      )

 cart.    s(38) = (  1.0000000  0.0000000  0.0000000 )
                  (  0.0000000  0.0000000  1.0000000 )
                  (  0.0000000  1.0000000  0.0000000 )


      isym = 39     inv.  90 deg rotation - cart. axis [-1,0,0]  

 cryst.   s(39) = (    -1          0          0      )
                  (     0          0          1      )
                  (     0         -1          0      )

 cart.    s(39) = ( -1.0000000  0.0000000  0.0000000 )
                  (  0.0000000  0.0000000 -1.0000000 )
                  (  0.0000000  1.0000000  0.0000000 )


      isym = 40     inv.  90 deg rotation - cart. axis [1,0,0]   

 cryst.   s(40) = (    -1          0          0      )
                  (     0          0         -1      )
                  (     0          1          0      )

 cart.    s(40) = ( -1.0000000  0.0000000  0.0000000 )
                  (  0.0000000  0.0000000  1.0000000 )
                  (  0.0000000 -1.0000000  0.0000000 )


      isym = 41     inv. 120 deg rotation - cart. axis [-1,-1,-1]

 cryst.   s(41) = (     0          0         -1      )
                  (    -1          0          0      )
                  (     0         -1          0      )

 cart.    s(41) = (  0.0000000 -1.0000000  0.0000000 )
                  (  0.0000000  0.0000000 -1.0000000 )
                  ( -1.0000000  0.0000000  0.0000000 )


      isym = 42     inv. 120 deg rotation - cart. axis [-1,1,1]  

 cryst.   s(42) = (     0          0          1      )
                  (     1          0          0      )
                  (     0         -1          0      )

 cart.    s(42) = (  0.0000000  1.0000000  0.0000000 )
                  (  0.0000000  0.0000000 -1.0000000 )
                  (  1.0000000  0.0000000  0.0000000 )


      isym = 43     inv. 120 deg rotation - cart. axis [1,1,-1]  

 cryst.   s(43) = (     0          0          1      )
                  (    -1          0          0      )
                  (     0          1          0      )

 cart.    s(43) = (  0.0000000 -1.0000000  0.0000000 )
                  (  0.0000000  0.0000000  1.0000000 )
                  (  1.0000000  0.0000000  0.0000000 )


      isym = 44     inv. 120 deg rotation - cart. axis [1,-1,1]  

 cryst.   s(44) = (     0          0         -1      )
                  (     1          0          0      )
                  (     0          1          0      )

 cart.    s(44) = (  0.0000000  1.0000000  0.0000000 )
                  (  0.0000000  0.0000000  1.0000000 )
                  ( -1.0000000  0.0000000  0.0000000 )


      isym = 45     inv. 120 deg rotation - cart. axis [1,1,1]   

 cryst.   s(45) = (     0         -1          0      )
                  (     0          0         -1      )
                  (    -1          0          0      )

 cart.    s(45) = (  0.0000000  0.0000000 -1.0000000 )
                  ( -1.0000000  0.0000000  0.0000000 )
                  (  0.0000000 -1.0000000  0.0000000 )


      isym = 46     inv. 120 deg rotation - cart. axis [-1,1,-1] 

 cryst.   s(46) = (     0          1          0      )
                  (     0          0          1      )
                  (    -1          0          0      )

 cart.    s(46) = (  0.0000000  0.0000000 -1.0000000 )
                  (  1.0000000  0.0000000  0.0000000 )
                  (  0.0000000  1.0000000  0.0000000 )


      isym = 47     inv. 120 deg rotation - cart. axis [1,-1,-1] 

 cryst.   s(47) = (     0          1          0      )
                  (     0          0         -1      )
                  (     1          0          0      )

 cart.    s(47) = (  0.0000000  0.0000000  1.0000000 )
                  (  1.0000000  0.0000000  0.0000000 )
                  (  0.0000000 -1.0000000  0.0000000 )


      isym = 48     inv. 120 deg rotation - cart. axis [-1,-1,1] 

 cryst.   s(48) = (     0         -1          0      )
                  (     0          0          1      )
                  (     1          0          0      )

 cart.    s(48) = (  0.0000000  0.0000000  1.0000000 )
                  ( -1.0000000  0.0000000  0.0000000 )
                  (  0.0000000  1.0000000  0.0000000 )


     point group O_h (m-3m) 
     there are 10 classes
     the character table:

       E     8C3   3C2   6C4   6C2'  i     8S6   3s_h  6S4   6s_d 
A_1g   1.00  1.00  1.00  1.00  1.00  1.00  1.00  1.00  1.00  1.00
A_2g   1.00  1.00  1.00 -1.00 -1.00  1.00  1.00  1.00 -1.00 -1.00
E_g    2.00 -1.00  2.00  0.00  0.00  2.00 -1.00  2.00  0.00  0.00
T_1g   3.00  0.00 -1.00  1.00 -1.00  3.00  0.00 -1.00  1.00 -1.00
T_2g   3.00  0.00 -1.00 -1.00  1.00  3.00  0.00 -1.00 -1.00  1.00
A_1u   1.00  1.00  1.00  1.00  1.00 -1.00 -1.00 -1.00 -1.00 -1.00
A_2u   1.00  1.00  1.00 -1.00 -1.00 -1.00 -1.00 -1.00  1.00  1.00
E_u    2.00 -1.00  2.00  0.00  0.00 -2.00  1.00 -2.00  0.00  0.00
T_1u   3.00  0.00 -1.00  1.00 -1.00 -3.00  0.00  1.00 -1.00  1.00
T_2u   3.00  0.00 -1.00 -1.00  1.00 -3.00  0.00  1.00  1.00 -1.00

     the symmetry operations in each class and the name of the first element:

     E        1
          identity                                               
     8C3     17   19   20   18   24   21   22   23
          120 deg rotation - cart. axis [-1,-1,-1]               
     3C2      2    4    3
          180 deg rotation - cart. axis [0,0,1]                  
     6C4      7    8   15   16   12   11
           90 deg rotation - cart. axis [0,0,-1]                 
     6C2'     5    6   14   13   10    9
          180 deg rotation - cart. axis [1,1,0]                  
     i       25
          inversion                                              
     8S6     41   43   44   42   48   45   46   47
          inv. 120 deg rotation - cart. axis [-1,-1,-1]          
     3s_h    26   28   27
          inv. 180 deg rotation - cart. axis [0,0,1]             
     6S4     31   32   39   40   36   35
          inv.  90 deg rotation - cart. axis [0,0,-1]            
     6s_d    29   30   38   37   34   33
          inv. 180 deg rotation - cart. axis [1,1,0]             

   Cartesian axes

     site n.     atom                  positions (alat units)
         1        O      tau(   1) = (   0.0000000   0.0000000   0.0000000  )

   Crystallographic axes

     site n.     atom                  positions (cryst. coord.)
         1        O      tau(   1) = (  0.0000000  0.0000000  0.0000000  )

     number of k points=     1  Gaussian smearing, width (Ry)=  0.0010
                       cart. coord. in units 2pi/alat
        k(    1) = (   0.0000000   0.0000000   0.0000000), wk =   1.0000000

                       cryst. coord.
        k(    1) = (   0.0000000   0.0000000   0.0000000), wk =   1.0000000

     Dense  grid:   710378 G-vectors     FFT dimensions: ( 144, 144, 144)

     Smooth grid:   251240 G-vectors     FFT dimensions: ( 100, 100, 100)

     Dynamical RAM for                 wfc:       0.64 MB

     Dynamical RAM for     wfc (w. buffer):       1.92 MB

     Dynamical RAM for           str. fact:       1.81 MB

     Dynamical RAM for           local pot:       0.00 MB

     Dynamical RAM for          nlocal pot:       0.64 MB

     Dynamical RAM for                qrad:       0.50 MB

     Dynamical RAM for          rho,v,vnew:      33.62 MB

     Dynamical RAM for               rhoin:      11.21 MB

     Dynamical RAM for            rho*nmix:      57.81 MB

     Dynamical RAM for           G-vectors:       7.09 MB

     Dynamical RAM for          h,s,v(r/c):       0.01 MB

     Dynamical RAM for          <psi|beta>:       0.00 MB

     Dynamical RAM for                 psi:       1.28 MB

     Dynamical RAM for                hpsi:       1.28 MB

     Dynamical RAM for                spsi:       1.28 MB

     Dynamical RAM for      wfcinit/wfcrot:       1.28 MB

     Dynamical RAM for           addusdens:      81.30 MB

     Dynamical RAM for          addusforce:      81.30 MB

     Estimated static dynamical RAM per process >      83.18 MB

     Estimated max dynamical RAM per process >     222.29 MB

     Estimated total dynamical RAM >       1.30 GB
     Generating pointlists ...
     new r_m :   0.4125 (alat units)  8.2500 (a.u.) for type    1

     Initial potential from superposition of free atoms

     starting charge       6.0000, renormalised to       6.0000

     negative rho (up, down):  5.073E-04 5.073E-04
     Starting wfcs are    4 randomized atomic wfcs +    4 random wfcs
     Checking if some PAW data can be deallocated... 

     total cpu time spent up to now is        3.8 secs

     per-process dynamical memory:   118.6 Mb

     Self-consistent Calculation

     iteration #  1     ecut=    60.00 Ry     beta= 0.30
     Davidson diagonalization with overlap

---- Real-time Memory Report at c_bands before calling an iterative solver
           210 MiB given to the printing process from OS
           115 MiB allocation reported by mallinfo(arena+hblkhd)
         12434 MiB available memory on the node where the printing process lives
------------------
     ethr =  1.00E-02,  avg # of iterations =  7.0

     negative rho (up, down):  6.070E-04 4.403E-04

     total cpu time spent up to now is        6.4 secs

     total energy              =     -41.21032738 Ry
     estimated scf accuracy    <       0.07814859 Ry

     total magnetization       =     2.00 Bohr mag/cell
     absolute magnetization    =     2.00 Bohr mag/cell

     iteration #  2     ecut=    60.00 Ry     beta= 0.30
     Davidson diagonalization with overlap

---- Real-time Memory Report at c_bands before calling an iterative solver
           237 MiB given to the printing process from OS
           147 MiB allocation reported by mallinfo(arena+hblkhd)
         12228 MiB available memory on the node where the printing process lives
------------------
     ethr =  1.30E-03,  avg # of iterations =  2.0

     negative rho (up, down):  9.372E-04 1.013E-03

     total cpu time spent up to now is        8.7 secs

     total energy              =     -41.26452039 Ry
     estimated scf accuracy    <       0.04042396 Ry

     total magnetization       =     2.00 Bohr mag/cell
     absolute magnetization    =     2.00 Bohr mag/cell

     iteration #  3     ecut=    60.00 Ry     beta= 0.30
     Davidson diagonalization with overlap

---- Real-time Memory Report at c_bands before calling an iterative solver
           240 MiB given to the printing process from OS
           149 MiB allocation reported by mallinfo(arena+hblkhd)
         12203 MiB available memory on the node where the printing process lives
------------------
     ethr =  6.74E-04,  avg # of iterations =  3.5

     negative rho (up, down):  8.569E-04 7.413E-04

     total cpu time spent up to now is       11.3 secs

     total energy              =     -41.26723722 Ry
     estimated scf accuracy    <       0.01521148 Ry

     total magnetization       =     2.00 Bohr mag/cell
     absolute magnetization    =     2.00 Bohr mag/cell

     iteration #  4     ecut=    60.00 Ry     beta= 0.30
     Davidson diagonalization with overlap

---- Real-time Memory Report at c_bands before calling an iterative solver
           242 MiB given to the printing process from OS
           152 MiB allocation reported by mallinfo(arena+hblkhd)
         12187 MiB available memory on the node where the printing process lives
------------------
     ethr =  2.54E-04,  avg # of iterations = 10.5

     negative rho (up, down):  8.334E-04 5.580E-04

     total cpu time spent up to now is       14.1 secs

     total energy              =     -41.26764929 Ry
     estimated scf accuracy    <       0.00233780 Ry

     total magnetization       =     2.00 Bohr mag/cell
     absolute magnetization    =     2.00 Bohr mag/cell

     iteration #  5     ecut=    60.00 Ry     beta= 0.30
     Davidson diagonalization with overlap

---- Real-time Memory Report at c_bands before calling an iterative solver
           245 MiB given to the printing process from OS
           154 MiB allocation reported by mallinfo(arena+hblkhd)
         12174 MiB available memory on the node where the printing process lives
------------------
     ethr =  3.90E-05,  avg # of iterations =  5.5

     negative rho (up, down):  8.590E-04 4.572E-04

     total cpu time spent up to now is       16.5 secs

     total energy              =     -41.26762116 Ry
     estimated scf accuracy    <       0.01053211 Ry

     total magnetization       =     2.00 Bohr mag/cell
     absolute magnetization    =     2.00 Bohr mag/cell

     iteration #  6     ecut=    60.00 Ry     beta= 0.30
     Davidson diagonalization with overlap

---- Real-time Memory Report at c_bands before calling an iterative solver
           247 MiB given to the printing process from OS
           157 MiB allocation reported by mallinfo(arena+hblkhd)
         12150 MiB available memory on the node where the printing process lives
------------------
     ethr =  3.90E-05,  avg # of iterations =  5.5

     negative rho (up, down):  8.612E-04 3.803E-04

     total cpu time spent up to now is       19.1 secs

     total energy              =     -41.26780238 Ry
     estimated scf accuracy    <       0.00375599 Ry

     total magnetization       =     2.00 Bohr mag/cell
     absolute magnetization    =     2.00 Bohr mag/cell

     iteration #  7     ecut=    60.00 Ry     beta= 0.30
     Davidson diagonalization with overlap

---- Real-time Memory Report at c_bands before calling an iterative solver
           250 MiB given to the printing process from OS
           159 MiB allocation reported by mallinfo(arena+hblkhd)
         12133 MiB available memory on the node where the printing process lives
------------------
     ethr =  3.90E-05,  avg # of iterations =  1.0

     negative rho (up, down):  8.651E-04 3.089E-04

     total cpu time spent up to now is       21.8 secs

     total energy              =     -41.26782742 Ry
     estimated scf accuracy    <       0.00356867 Ry

     total magnetization       =     2.00 Bohr mag/cell
     absolute magnetization    =     2.00 Bohr mag/cell

     iteration #  8     ecut=    60.00 Ry     beta= 0.30
     Davidson diagonalization with overlap

---- Real-time Memory Report at c_bands before calling an iterative solver
           253 MiB given to the printing process from OS
           162 MiB allocation reported by mallinfo(arena+hblkhd)
         12118 MiB available memory on the node where the printing process lives
------------------
     ethr =  3.90E-05,  avg # of iterations =  1.5

     negative rho (up, down):  8.715E-04 2.830E-04

     total cpu time spent up to now is       24.1 secs

     total energy              =     -41.26789318 Ry
     estimated scf accuracy    <       0.00440534 Ry

     total magnetization       =     2.00 Bohr mag/cell
     absolute magnetization    =     2.00 Bohr mag/cell

     iteration #  9     ecut=    60.00 Ry     beta= 0.30
     Davidson diagonalization with overlap

---- Real-time Memory Report at c_bands before calling an iterative solver
           255 MiB given to the printing process from OS
           165 MiB allocation reported by mallinfo(arena+hblkhd)
         12095 MiB available memory on the node where the printing process lives
------------------
     ethr =  3.90E-05,  avg # of iterations =  1.0

     negative rho (up, down):  8.783E-04 2.712E-04

     total cpu time spent up to now is       26.2 secs

     total energy              =     -41.26793956 Ry
     estimated scf accuracy    <       0.00317847 Ry

     total magnetization       =     2.00 Bohr mag/cell
     absolute magnetization    =     2.00 Bohr mag/cell

     iteration # 10     ecut=    60.00 Ry     beta= 0.30
     Davidson diagonalization with overlap

---- Real-time Memory Report at c_bands before calling an iterative solver
           258 MiB given to the printing process from OS
           167 MiB allocation reported by mallinfo(arena+hblkhd)
         12080 MiB available memory on the node where the printing process lives
------------------
     ethr =  3.90E-05,  avg # of iterations =  1.0

     negative rho (up, down):  8.947E-04 2.656E-04

     total cpu time spent up to now is       28.6 secs

     total energy              =     -41.26788533 Ry
     estimated scf accuracy    <       0.00253190 Ry

     total magnetization       =     2.00 Bohr mag/cell
     absolute magnetization    =     2.00 Bohr mag/cell

     iteration # 11     ecut=    60.00 Ry     beta= 0.30
     Davidson diagonalization with overlap

---- Real-time Memory Report at c_bands before calling an iterative solver
           258 MiB given to the printing process from OS
           167 MiB allocation reported by mallinfo(arena+hblkhd)
         12078 MiB available memory on the node where the printing process lives
------------------
     ethr =  3.90E-05,  avg # of iterations =  1.0

     negative rho (up, down):  8.950E-04 2.538E-04

     total cpu time spent up to now is       31.1 secs

     total energy              =     -41.26791965 Ry
     estimated scf accuracy    <       0.00154712 Ry

     total magnetization       =     2.00 Bohr mag/cell
     absolute magnetization    =     2.00 Bohr mag/cell

     iteration # 12     ecut=    60.00 Ry     beta= 0.30
     Davidson diagonalization with overlap

---- Real-time Memory Report at c_bands before calling an iterative solver
           258 MiB given to the printing process from OS
           167 MiB allocation reported by mallinfo(arena+hblkhd)
         12077 MiB available memory on the node where the printing process lives
------------------
     ethr =  2.58E-05,  avg # of iterations =  1.5

     negative rho (up, down):  8.989E-04 2.516E-04

     total cpu time spent up to now is       33.5 secs

     total energy              =     -41.26795997 Ry
     estimated scf accuracy    <       0.00082721 Ry

     total magnetization       =     2.00 Bohr mag/cell
     absolute magnetization    =     2.00 Bohr mag/cell

     iteration # 13     ecut=    60.00 Ry     beta= 0.30
     Davidson diagonalization with overlap

---- Real-time Memory Report at c_bands before calling an iterative solver
           258 MiB given to the printing process from OS
           167 MiB allocation reported by mallinfo(arena+hblkhd)
         12071 MiB available memory on the node where the printing process lives
------------------
     ethr =  1.38E-05,  avg # of iterations =  1.5

     negative rho (up, down):  9.085E-04 2.477E-04

     total cpu time spent up to now is       36.0 secs

     total energy              =     -41.26798101 Ry
     estimated scf accuracy    <       0.00002320 Ry

     total magnetization       =     2.00 Bohr mag/cell
     absolute magnetization    =     2.00 Bohr mag/cell

     iteration # 14     ecut=    60.00 Ry     beta= 0.30
     Davidson diagonalization with overlap

---- Real-time Memory Report at c_bands before calling an iterative solver
           258 MiB given to the printing process from OS
           167 MiB allocation reported by mallinfo(arena+hblkhd)
         12073 MiB available memory on the node where the printing process lives
------------------
     c_bands:  2 eigenvalues not converged
     ethr =  3.87E-07,  avg # of iterations = 19.5

     negative rho (up, down):  9.091E-04 2.442E-04

     total cpu time spent up to now is       39.3 secs

     total energy              =     -41.26798834 Ry
     estimated scf accuracy    <       0.00004464 Ry

     total magnetization       =     2.00 Bohr mag/cell
     absolute magnetization    =     2.00 Bohr mag/cell

     iteration # 15     ecut=    60.00 Ry     beta= 0.30
     Davidson diagonalization with overlap

---- Real-time Memory Report at c_bands before calling an iterative solver
           258 MiB given to the printing process from OS
           167 MiB allocation reported by mallinfo(arena+hblkhd)
         12070 MiB available memory on the node where the printing process lives
------------------
     ethr =  3.87E-07,  avg # of iterations = 11.5

     negative rho (up, down):  9.109E-04 2.422E-04

     total cpu time spent up to now is       41.6 secs

     total energy              =     -41.26798962 Ry
     estimated scf accuracy    <       0.00001441 Ry

     total magnetization       =     2.00 Bohr mag/cell
     absolute magnetization    =     2.00 Bohr mag/cell

     iteration # 16     ecut=    60.00 Ry     beta= 0.30
     Davidson diagonalization with overlap

---- Real-time Memory Report at c_bands before calling an iterative solver
           258 MiB given to the printing process from OS
           167 MiB allocation reported by mallinfo(arena+hblkhd)
         12067 MiB available memory on the node where the printing process lives
------------------
     ethr =  2.40E-07,  avg # of iterations =  2.0

     negative rho (up, down):  9.113E-04 2.412E-04

     total cpu time spent up to now is       43.7 secs

     total energy              =     -41.26799036 Ry
     estimated scf accuracy    <       0.00000474 Ry

     total magnetization       =     2.00 Bohr mag/cell
     absolute magnetization    =     2.00 Bohr mag/cell

     iteration # 17     ecut=    60.00 Ry     beta= 0.30
     Davidson diagonalization with overlap

---- Real-time Memory Report at c_bands before calling an iterative solver
           258 MiB given to the printing process from OS
           167 MiB allocation reported by mallinfo(arena+hblkhd)
         12064 MiB available memory on the node where the printing process lives
------------------
     ethr =  7.90E-08,  avg # of iterations =  1.5

     negative rho (up, down):  9.118E-04 2.408E-04

     total cpu time spent up to now is       45.9 secs

     total energy              =     -41.26799045 Ry
     estimated scf accuracy    <       0.00000337 Ry

     total magnetization       =     2.00 Bohr mag/cell
     absolute magnetization    =     2.00 Bohr mag/cell

     iteration # 18     ecut=    60.00 Ry     beta= 0.30
     Davidson diagonalization with overlap

---- Real-time Memory Report at c_bands before calling an iterative solver
           258 MiB given to the printing process from OS
           167 MiB allocation reported by mallinfo(arena+hblkhd)
         12064 MiB available memory on the node where the printing process lives
------------------
     ethr =  5.62E-08,  avg # of iterations =  1.5

     negative rho (up, down):  9.115E-04 2.406E-04

     total cpu time spent up to now is       47.7 secs

     total energy              =     -41.26799035 Ry
     estimated scf accuracy    <       0.00000220 Ry

     total magnetization       =     2.00 Bohr mag/cell
     absolute magnetization    =     2.00 Bohr mag/cell

     iteration # 19     ecut=    60.00 Ry     beta= 0.30
     Davidson diagonalization with overlap

---- Real-time Memory Report at c_bands before calling an iterative solver
           258 MiB given to the printing process from OS
           167 MiB allocation reported by mallinfo(arena+hblkhd)
         12673 MiB available memory on the node where the printing process lives
------------------
     ethr =  3.66E-08,  avg # of iterations =  1.0

     negative rho (up, down):  9.115E-04 2.404E-04

     total cpu time spent up to now is       49.6 secs

     total energy              =     -41.26799037 Ry
     estimated scf accuracy    <       0.00000069 Ry

     total magnetization       =     2.00 Bohr mag/cell
     absolute magnetization    =     2.00 Bohr mag/cell

     iteration # 20     ecut=    60.00 Ry     beta= 0.30
     Davidson diagonalization with overlap

---- Real-time Memory Report at c_bands before calling an iterative solver
           258 MiB given to the printing process from OS
           167 MiB allocation reported by mallinfo(arena+hblkhd)
         12500 MiB available memory on the node where the printing process lives
------------------
     ethr =  1.14E-08,  avg # of iterations =  2.0

     negative rho (up, down):  9.122E-04 2.402E-04

     total cpu time spent up to now is       52.6 secs

     total energy              =     -41.26799046 Ry
     estimated scf accuracy    <       0.00000218 Ry

     total magnetization       =     2.00 Bohr mag/cell
     absolute magnetization    =     2.00 Bohr mag/cell

     iteration # 21     ecut=    60.00 Ry     beta= 0.30
     Davidson diagonalization with overlap

---- Real-time Memory Report at c_bands before calling an iterative solver
           258 MiB given to the printing process from OS
           167 MiB allocation reported by mallinfo(arena+hblkhd)
         12234 MiB available memory on the node where the printing process lives
------------------
     ethr =  1.14E-08,  avg # of iterations =  1.0

     negative rho (up, down):  9.120E-04 2.401E-04

     total cpu time spent up to now is       54.9 secs

     total energy              =     -41.26799039 Ry
     estimated scf accuracy    <       0.00000144 Ry

     total magnetization       =     2.00 Bohr mag/cell
     absolute magnetization    =     2.00 Bohr mag/cell

     iteration # 22     ecut=    60.00 Ry     beta= 0.30
     Davidson diagonalization with overlap

---- Real-time Memory Report at c_bands before calling an iterative solver
           258 MiB given to the printing process from OS
           167 MiB allocation reported by mallinfo(arena+hblkhd)
         12233 MiB available memory on the node where the printing process lives
------------------
     ethr =  1.14E-08,  avg # of iterations =  1.5

     negative rho (up, down):  9.122E-04 2.400E-04

     total cpu time spent up to now is       57.5 secs

     total energy              =     -41.26799044 Ry
     estimated scf accuracy    <       0.00000102 Ry

     total magnetization       =     2.00 Bohr mag/cell
     absolute magnetization    =     2.00 Bohr mag/cell

     iteration # 23     ecut=    60.00 Ry     beta= 0.30
     Davidson diagonalization with overlap

---- Real-time Memory Report at c_bands before calling an iterative solver
           258 MiB given to the printing process from OS
           167 MiB allocation reported by mallinfo(arena+hblkhd)
         12233 MiB available memory on the node where the printing process lives
------------------
     ethr =  1.14E-08,  avg # of iterations =  1.0

     negative rho (up, down):  9.116E-04 2.397E-04

     total cpu time spent up to now is       59.1 secs

     total energy              =     -41.26799047 Ry
     estimated scf accuracy    <       0.00000079 Ry

     total magnetization       =     2.00 Bohr mag/cell
     absolute magnetization    =     2.00 Bohr mag/cell

     iteration # 24     ecut=    60.00 Ry     beta= 0.30
     Davidson diagonalization with overlap

---- Real-time Memory Report at c_bands before calling an iterative solver
           258 MiB given to the printing process from OS
           167 MiB allocation reported by mallinfo(arena+hblkhd)
         12720 MiB available memory on the node where the printing process lives
------------------
     ethr =  1.14E-08,  avg # of iterations =  1.0

     negative rho (up, down):  9.118E-04 2.397E-04

     total cpu time spent up to now is       60.4 secs

     total energy              =     -41.26799046 Ry
     estimated scf accuracy    <       0.00000059 Ry

     total magnetization       =     2.00 Bohr mag/cell
     absolute magnetization    =     2.00 Bohr mag/cell

     iteration # 25     ecut=    60.00 Ry     beta= 0.30
     Davidson diagonalization with overlap

---- Real-time Memory Report at c_bands before calling an iterative solver
           258 MiB given to the printing process from OS
           167 MiB allocation reported by mallinfo(arena+hblkhd)
         12670 MiB available memory on the node where the printing process lives
------------------
     ethr =  9.79E-09,  avg # of iterations =  1.0

     negative rho (up, down):  9.122E-04 2.398E-04

     total cpu time spent up to now is       62.0 secs

     total energy              =     -41.26799044 Ry
     estimated scf accuracy    <       0.00000020 Ry

     total magnetization       =     2.00 Bohr mag/cell
     absolute magnetization    =     2.00 Bohr mag/cell

     iteration # 26     ecut=    60.00 Ry     beta= 0.30
     Davidson diagonalization with overlap

---- Real-time Memory Report at c_bands before calling an iterative solver
           258 MiB given to the printing process from OS
           167 MiB allocation reported by mallinfo(arena+hblkhd)
         12369 MiB available memory on the node where the printing process lives
------------------
     ethr =  3.37E-09,  avg # of iterations =  1.0

     negative rho (up, down):  9.125E-04 2.398E-04

     total cpu time spent up to now is       63.9 secs

     total energy              =     -41.26799043 Ry
     estimated scf accuracy    <       0.00000010 Ry

     total magnetization       =     2.00 Bohr mag/cell
     absolute magnetization    =     2.00 Bohr mag/cell

     iteration # 27     ecut=    60.00 Ry     beta= 0.30
     Davidson diagonalization with overlap

---- Real-time Memory Report at c_bands before calling an iterative solver
           258 MiB given to the printing process from OS
           167 MiB allocation reported by mallinfo(arena+hblkhd)
         11944 MiB available memory on the node where the printing process lives
------------------
     ethr =  1.64E-09,  avg # of iterations =  2.0

     negative rho (up, down):  9.125E-04 2.396E-04

     total cpu time spent up to now is       65.9 secs

     total energy              =     -41.26799047 Ry
     estimated scf accuracy    <       0.00000014 Ry

     total magnetization       =     2.00 Bohr mag/cell
     absolute magnetization    =     2.00 Bohr mag/cell

     iteration # 28     ecut=    60.00 Ry     beta= 0.30
     Davidson diagonalization with overlap

---- Real-time Memory Report at c_bands before calling an iterative solver
           258 MiB given to the printing process from OS
           167 MiB allocation reported by mallinfo(arena+hblkhd)
         11944 MiB available memory on the node where the printing process lives
------------------
     ethr =  1.64E-09,  avg # of iterations =  1.5

     negative rho (up, down):  9.124E-04 2.396E-04

     total cpu time spent up to now is       67.9 secs

     total energy              =     -41.26799048 Ry
     estimated scf accuracy    <       0.00000033 Ry

     total magnetization       =     2.00 Bohr mag/cell
     absolute magnetization    =     2.00 Bohr mag/cell

     iteration # 29     ecut=    60.00 Ry     beta= 0.30
     Davidson diagonalization with overlap

---- Real-time Memory Report at c_bands before calling an iterative solver
           258 MiB given to the printing process from OS
           167 MiB allocation reported by mallinfo(arena+hblkhd)
         11944 MiB available memory on the node where the printing process lives
------------------
     ethr =  1.64E-09,  avg # of iterations =  1.0

     negative rho (up, down):  9.125E-04 2.396E-04

     total cpu time spent up to now is       69.9 secs

     total energy              =     -41.26799047 Ry
     estimated scf accuracy    <       0.00000029 Ry

     total magnetization       =     2.00 Bohr mag/cell
     absolute magnetization    =     2.00 Bohr mag/cell

     iteration # 30     ecut=    60.00 Ry     beta= 0.30
     Davidson diagonalization with overlap

---- Real-time Memory Report at c_bands before calling an iterative solver
           258 MiB given to the printing process from OS
           167 MiB allocation reported by mallinfo(arena+hblkhd)
         11798 MiB available memory on the node where the printing process lives
------------------
     ethr =  1.64E-09,  avg # of iterations =  1.0

     negative rho (up, down):  9.125E-04 2.398E-04

     total cpu time spent up to now is       72.0 secs

     total energy              =     -41.26799046 Ry
     estimated scf accuracy    <       0.00000024 Ry

     total magnetization       =     2.00 Bohr mag/cell
     absolute magnetization    =     2.00 Bohr mag/cell

     iteration # 31     ecut=    60.00 Ry     beta= 0.30
     Davidson diagonalization with overlap

---- Real-time Memory Report at c_bands before calling an iterative solver
           258 MiB given to the printing process from OS
           167 MiB allocation reported by mallinfo(arena+hblkhd)
         11797 MiB available memory on the node where the printing process lives
------------------
     ethr =  1.64E-09,  avg # of iterations =  1.0

     negative rho (up, down):  9.126E-04 2.398E-04

     total cpu time spent up to now is       73.9 secs

     total energy              =     -41.26799047 Ry
     estimated scf accuracy    <       0.00000020 Ry

     total magnetization       =     2.00 Bohr mag/cell
     absolute magnetization    =     2.00 Bohr mag/cell

     iteration # 32     ecut=    60.00 Ry     beta= 0.30
     Davidson diagonalization with overlap

---- Real-time Memory Report at c_bands before calling an iterative solver
           258 MiB given to the printing process from OS
           167 MiB allocation reported by mallinfo(arena+hblkhd)
         11797 MiB available memory on the node where the printing process lives
------------------
     ethr =  1.64E-09,  avg # of iterations =  1.0

     negative rho (up, down):  9.126E-04 2.398E-04

     total cpu time spent up to now is       76.2 secs

     total energy              =     -41.26799048 Ry
     estimated scf accuracy    <       0.00000022 Ry

     total magnetization       =     2.00 Bohr mag/cell
     absolute magnetization    =     2.00 Bohr mag/cell

     iteration # 33     ecut=    60.00 Ry     beta= 0.30
     Davidson diagonalization with overlap

---- Real-time Memory Report at c_bands before calling an iterative solver
           258 MiB given to the printing process from OS
           167 MiB allocation reported by mallinfo(arena+hblkhd)
         11867 MiB available memory on the node where the printing process lives
------------------
     ethr =  1.64E-09,  avg # of iterations =  1.0

     negative rho (up, down):  9.127E-04 2.398E-04

     total cpu time spent up to now is       78.1 secs

     total energy              =     -41.26799048 Ry
     estimated scf accuracy    <       0.00000014 Ry

     total magnetization       =     2.00 Bohr mag/cell
     absolute magnetization    =     2.00 Bohr mag/cell

     iteration # 34     ecut=    60.00 Ry     beta= 0.30
     Davidson diagonalization with overlap

---- Real-time Memory Report at c_bands before calling an iterative solver
           258 MiB given to the printing process from OS
           167 MiB allocation reported by mallinfo(arena+hblkhd)
         11795 MiB available memory on the node where the printing process lives
------------------
     ethr =  1.64E-09,  avg # of iterations =  1.0

     negative rho (up, down):  9.126E-04 2.397E-04

     total cpu time spent up to now is       80.2 secs

     total energy              =     -41.26799047 Ry
     estimated scf accuracy    <       0.00000015 Ry

     total magnetization       =     2.00 Bohr mag/cell
     absolute magnetization    =     2.00 Bohr mag/cell

     iteration # 35     ecut=    60.00 Ry     beta= 0.30
     Davidson diagonalization with overlap

---- Real-time Memory Report at c_bands before calling an iterative solver
           258 MiB given to the printing process from OS
           167 MiB allocation reported by mallinfo(arena+hblkhd)
         11795 MiB available memory on the node where the printing process lives
------------------
     ethr =  1.64E-09,  avg # of iterations =  1.0

     negative rho (up, down):  9.129E-04 2.396E-04

     total cpu time spent up to now is       82.6 secs

     total energy              =     -41.26799047 Ry
     estimated scf accuracy    <       0.00000022 Ry

     total magnetization       =     2.00 Bohr mag/cell
     absolute magnetization    =     2.00 Bohr mag/cell

     iteration # 36     ecut=    60.00 Ry     beta= 0.30
     Davidson diagonalization with overlap

---- Real-time Memory Report at c_bands before calling an iterative solver
           258 MiB given to the printing process from OS
           167 MiB allocation reported by mallinfo(arena+hblkhd)
         11798 MiB available memory on the node where the printing process lives
------------------
     ethr =  1.64E-09,  avg # of iterations =  1.0

     negative rho (up, down):  9.127E-04 2.396E-04

     total cpu time spent up to now is       84.7 secs

     total energy              =     -41.26799047 Ry
     estimated scf accuracy    <       0.00000043 Ry

     total magnetization       =     2.00 Bohr mag/cell
     absolute magnetization    =     2.00 Bohr mag/cell

     iteration # 37     ecut=    60.00 Ry     beta= 0.30
     Davidson diagonalization with overlap

---- Real-time Memory Report at c_bands before calling an iterative solver
           258 MiB given to the printing process from OS
           167 MiB allocation reported by mallinfo(arena+hblkhd)
         11794 MiB available memory on the node where the printing process lives
------------------
     ethr =  1.64E-09,  avg # of iterations =  1.0

     negative rho (up, down):  9.129E-04 2.397E-04

     total cpu time spent up to now is       86.6 secs

     total energy              =     -41.26799046 Ry
     estimated scf accuracy    <       0.00000026 Ry

     total magnetization       =     2.00 Bohr mag/cell
     absolute magnetization    =     2.00 Bohr mag/cell

     iteration # 38     ecut=    60.00 Ry     beta= 0.30
     Davidson diagonalization with overlap

---- Real-time Memory Report at c_bands before calling an iterative solver
           258 MiB given to the printing process from OS
           167 MiB allocation reported by mallinfo(arena+hblkhd)
         11795 MiB available memory on the node where the printing process lives
------------------
     ethr =  1.64E-09,  avg # of iterations =  1.0

     negative rho (up, down):  9.130E-04 2.397E-04

     total cpu time spent up to now is       88.7 secs

     total energy              =     -41.26799047 Ry
     estimated scf accuracy    <       0.00000005 Ry

     total magnetization       =     2.00 Bohr mag/cell
     absolute magnetization    =     2.00 Bohr mag/cell

     iteration # 39     ecut=    60.00 Ry     beta= 0.30
     Davidson diagonalization with overlap

---- Real-time Memory Report at c_bands before calling an iterative solver
           258 MiB given to the printing process from OS
           167 MiB allocation reported by mallinfo(arena+hblkhd)
         11380 MiB available memory on the node where the printing process lives
------------------
     ethr =  8.73E-10,  avg # of iterations =  1.0

     negative rho (up, down):  9.130E-04 2.397E-04

     total cpu time spent up to now is       90.7 secs

     total energy              =     -41.26799047 Ry
     estimated scf accuracy    <       0.00000001 Ry

     total magnetization       =     2.00 Bohr mag/cell
     absolute magnetization    =     2.00 Bohr mag/cell

     iteration # 40     ecut=    60.00 Ry     beta= 0.30
     Davidson diagonalization with overlap

---- Real-time Memory Report at c_bands before calling an iterative solver
           258 MiB given to the printing process from OS
           167 MiB allocation reported by mallinfo(arena+hblkhd)
         11793 MiB available memory on the node where the printing process lives
------------------
     ethr =  2.09E-10,  avg # of iterations =  1.5

     negative rho (up, down):  9.130E-04 2.397E-04

     total cpu time spent up to now is       92.7 secs

     total energy              =     -41.26799047 Ry
     estimated scf accuracy    <       0.00000006 Ry

     total magnetization       =     2.00 Bohr mag/cell
     absolute magnetization    =     2.00 Bohr mag/cell

     iteration # 41     ecut=    60.00 Ry     beta= 0.30
     Davidson diagonalization with overlap

---- Real-time Memory Report at c_bands before calling an iterative solver
           258 MiB given to the printing process from OS
           167 MiB allocation reported by mallinfo(arena+hblkhd)
         11793 MiB available memory on the node where the printing process lives
------------------
     ethr =  2.09E-10,  avg # of iterations =  1.0

     negative rho (up, down):  9.131E-04 2.397E-04

     total cpu time spent up to now is       94.7 secs

     total energy              =     -41.26799048 Ry
     estimated scf accuracy    <       0.00000004 Ry

     total magnetization       =     2.00 Bohr mag/cell
     absolute magnetization    =     2.00 Bohr mag/cell

     iteration # 42     ecut=    60.00 Ry     beta= 0.30
     Davidson diagonalization with overlap

---- Real-time Memory Report at c_bands before calling an iterative solver
           258 MiB given to the printing process from OS
           167 MiB allocation reported by mallinfo(arena+hblkhd)
         11792 MiB available memory on the node where the printing process lives
------------------
     ethr =  2.09E-10,  avg # of iterations =  1.0

     negative rho (up, down):  9.131E-04 2.396E-04

     Magnetic moment per site  (integrated on atomic sphere of radius R)
     atom   1 (R=0.413)  charge=  6.0000  magn=  2.0000

     total cpu time spent up to now is       96.6 secs

     End of self-consistent calculation

 ------ SPIN UP ------------


          k = 0.0000 0.0000 0.0000 ( 31335 PWs)   bands (ev):

   -25.2193 -10.2219 -10.2218 -10.2218  -0.5159   0.6840   0.8683   0.8693

     occupation numbers 
     1.0000   1.0000   1.0000   1.0000   0.0000   0.0000   0.0000   0.0000

 ------ SPIN DOWN ----------


          k = 0.0000 0.0000 0.0000 ( 31335 PWs)   bands (ev):

   -21.9710  -7.1877  -7.1877  -7.1877  -0.4247   0.8278   0.9412   0.9436

     occupation numbers 
     1.0000   0.3335   0.3334   0.3331   0.0000   0.0000   0.0000   0.0000

     the spin up/dw Fermi energies are    -5.5291   -7.1918 ev

!    total energy              =     -41.26799048 Ry
     total all-electron energy =      -150.114881 Ry
     estimated scf accuracy    <          9.3E-09 Ry
     smearing contrib. (-TS)   =      -0.00077131 Ry
     internal energy E=F+TS    =     -41.26721917 Ry

     The total energy is F=E-TS. E is the sum of the following terms:
     one-electron contribution =     -52.02551578 Ry
     hartree contribution      =      27.41577051 Ry
     xc contribution           =      -7.05472322 Ry
     ewald contribution        =      -0.00000000 Ry
     one-center paw contrib.   =      -9.60275068 Ry
      -> PAW hartree energy AE =      21.69093814 Ry
      -> PAW hartree energy PS =     -21.65855610 Ry
      -> PAW xc energy AE      =     -16.10235214 Ry
      -> PAW xc energy PS      =       6.46721942 Ry
      -> total E_H with PAW    =      27.44815255 Ry
      -> total E_XC with PAW   =     -16.68985594 Ry

     total magnetization       =     2.00 Bohr mag/cell
     absolute magnetization    =     2.00 Bohr mag/cell

     convergence has been achieved in  42 iterations

     negative rho (up, down):  9.131E-04 2.396E-04

     Forces acting on atoms (cartesian axes, Ry/au):

     atom    1 type  1   force =     0.00000000    0.00000000    0.00000000
     The Martyna-Tuckerman correction term to forces
     atom    1 type  1   force =     0.00000001    0.00000000   -0.00000001
     The non-local contrib.  to forces
     atom    1 type  1   force =     0.00000000    0.00000000    0.00000000
     The ionic contribution  to forces
     atom    1 type  1   force =    -0.00000000   -0.00000000   -0.00000000
     The local contribution  to forces
     atom    1 type  1   force =    -0.00001869    0.00000648   -0.00000893
     The core correction contribution to forces
     atom    1 type  1   force =    -0.00000023    0.00000002   -0.00000010
     The Hubbard contrib.    to forces
     atom    1 type  1   force =     0.00000000    0.00000000    0.00000000
     The SCF correction term to forces
     atom    1 type  1   force =     0.00000572    0.00000034    0.00000520

     Total force =     0.000000     Total SCF correction =     0.000008

     Writing all to output data dir ./tmp/o_atom.save/ :
     XML data file, charge density, pseudopotentials, collected wavefunctions

     init_run     :      2.91s CPU      3.69s WALL (       1 calls)
     electrons    :     77.14s CPU     92.90s WALL (       1 calls)
     forces       :      0.97s CPU      1.23s WALL (       1 calls)

     Called by init_run:
     wfcinit      :      0.11s CPU      0.11s WALL (       1 calls)
     wfcinit:atom :      0.00s CPU      0.00s WALL (       2 calls)
     wfcinit:wfcr :      0.10s CPU      0.10s WALL (       2 calls)
     potinit      :      1.39s CPU      1.91s WALL (       1 calls)
     hinit0       :      0.87s CPU      0.99s WALL (       1 calls)

     Called by electrons:
     c_bands      :     11.08s CPU     11.57s WALL (      42 calls)
     sum_band     :     15.46s CPU     19.50s WALL (      42 calls)
     v_of_rho     :     30.78s CPU     38.03s WALL (      43 calls)
     v_h          :      1.89s CPU      2.00s WALL (      43 calls)
     v_xc         :     29.51s CPU     36.79s WALL (      44 calls)
     newd         :      7.11s CPU     11.07s WALL (      43 calls)
     PAW_pot      :      2.47s CPU      2.57s WALL (      43 calls)
     mix_rho      :      6.18s CPU      6.35s WALL (      42 calls)

     Called by c_bands:
     init_us_2    :      0.15s CPU      0.16s WALL (     172 calls)
     regterg      :     10.70s CPU     11.16s WALL (      84 calls)

     Called by sum_band:
     sum_band:wei :      0.00s CPU      0.00s WALL (      42 calls)
     sum_band:loo :      2.71s CPU      2.81s WALL (      42 calls)
     sum_band:buf :      0.02s CPU      0.02s WALL (      84 calls)
     sum_band:ini :      0.09s CPU      0.09s WALL (      84 calls)
     sum_band:cal :      0.33s CPU      0.33s WALL (      84 calls)
     sum_band:bec :      0.00s CPU      0.00s WALL (      84 calls)
     addusdens    :      9.39s CPU     13.20s WALL (      42 calls)
                                        0.00s GPU  (      42 calls)
     addusd:skk   :      0.02s CPU      0.02s WALL (      42 calls)
                                        0.00s GPU  (      42 calls)

     Called by *egterg:
     rdiaghg      :      0.06s CPU      0.06s WALL (     296 calls)
     regterg:over :      0.45s CPU      0.45s WALL (     212 calls)
     regterg:upda :      0.06s CPU      0.06s WALL (     212 calls)
     regterg:last :      0.13s CPU      0.13s WALL (     141 calls)
     h_psi        :      9.47s CPU      9.92s WALL (     298 calls)
     s_psi        :      0.03s CPU      0.03s WALL (     298 calls)
     g_psi        :      0.04s CPU      0.04s WALL (     212 calls)

     Called by h_psi:
     h_psi:calbec :      0.50s CPU      0.51s WALL (     298 calls)
     vloc_psi     :      8.86s CPU      9.30s WALL (     298 calls)
                                        0.00s GPU  (     298 calls)
     add_vuspsi   :      0.06s CPU      0.06s WALL (     298 calls)

     General routines
     calbec       :      0.82s CPU      0.84s WALL (     390 calls)
     fft          :     26.33s CPU     28.76s WALL (     788 calls)
     ffts         :      1.18s CPU      1.27s WALL (     128 calls)
     fftw         :      9.15s CPU      9.63s WALL (    2026 calls)
     interpolate  :      3.88s CPU      4.10s WALL (      86 calls)

     Parallel routines

     PAW routines
     PAW_pot      :      2.47s CPU      2.57s WALL (      43 calls)
     PAW_symme    :      0.18s CPU      0.18s WALL (      85 calls)

     PWSCF        :   1m21.16s CPU   1m38.11s WALL


   This run was terminated on:  15:48:35  25Jul2026            

=------------------------------------------------------------------------------=
   JOB DONE.
=------------------------------------------------------------------------------=
