ITEM: TIMESTEP
5000
ITEM: NUMBER OF ATOMS
1664
ITEM: BOX BOUNDS pp pp ff
0.0000000000000000e+00 2.8920000000000002e+01
0.0000000000000000e+00 2.8920000000000002e+01
0.0000000000000000e+00 4.3380000000000003e+01
ITEM: ATOMS id type x y z
1 1 0 0 0
2 1 1.8075 1.8075 0
3 1 1.8075 0 1.8075
4 1 0 1.8075 1.8075
5 1 3.615 0 0
6 1 5.4225 1.8075 0
7 1 5.4225 0 1.8075
8 1 3.615 1.8075 1.8075
9 1 7.23 0 0
10 1 9.0375 1.8075 0
11 1 9.0375 0 1.8075
12 1 7.23 1.8075 1.8075
13 1 10.845 0 0
14 1 12.6525 1.8075 0
15 1 12.6525 0 1.8075
16 1 10.845 1.8075 1.8075
17 1 14.46 0 0
18 1 16.2675 1.8075 0
19 1 16.2675 0 1.8075
20 1 14.46 1.8075 1.8075
21 1 18.075 0 0
22 1 19.8825 1.8075 0
23 1 19.8825 0 1.8075
24 1 18.075 1.8075 1.8075
25 1 21.69 0 0
26 1 23.4975 1.8075 0
27 1 23.4975 0 1.8075
28 1 21.69 1.8075 1.8075
29 1 25.305 0 0
30 1 27.1125 1.8075 0
31 1 27.1125 0 1.8075
32 1 25.305 1.8075 1.8075
33 1 0 3.615 0
34 1 1.8075 5.4225 0
35 1 1.8075 3.615 1.8075
36 1 0 5.4225 1.8075
37 1 3.615 3.615 0
38 1 5.4225 5.4225 0
39 1 5.4225 3.615 1.8075
40 1 3.615 5.4225 1.8075
41 1 7.23 3.615 0
42 1 9.0375 5.4225 0
43 1 9.0375 3.615 1.8075
44 1 7.23 5.4225 1.8075
45 1 10.845 3.615 0
46 1 12.6525 5.4225 0
47 1 12.6525 3.615 1.8075
48 1 10.845 5.4225 1.8075
49 1 14.46 3.615 0
50 1 16.2675 5.4225 0
51 1 16.2675 3.615 1.8075
52 1 14.46 5.4225 1.8075
53 1 18.075 3.615 0
54 1 19.8825 5.4225 0
55 1 19.8825 3.615 1.8075
56 1 18.075 5.4225 1.8075
57 1 21.69 3.615 0
58 1 23.4975 5.4225 0
59 1 23.4975 3.615 1.8075
60 1 21.69 5.4225 1.8075
61 1 25.305 3.615 0
62 1 27.1125 5.4225 0
63 1 27.1125 3.615 1.8075
64 1 25.305 5.4225 1.8075
65 1 0 7.23 0
66 1 1.8075 9.0375 0
67 1 1.8075 7.23 1.8075
68 1 0 9.0375 1.8075
69 1 3.615 7.23 0
70 1 5.4225 9.0375 0
71 1 5.4225 7.23 1.8075
72 1 3.615 9.0375 1.8075
73 1 7.23 7.23 0
74 1 9.0375 9.0375 0
75 1 9.0375 7.23 1.8075
76 1 7.23 9.0375 1.8075
77 1 10.845 7.23 0
78 1 12.6525 9.0375 0
79 1 12.6525 7.23 1.8075
80 1 10.845 9.0375 1.8075
81 1 14.46 7.23 0
82 1 16.2675 9.0375 0
83 1 16.2675 7.23 1.8075
84 1 14.46 9.0375 1.8075
85 1 18.075 7.23 0
86 1 19.8825 9.0375 0
87 1 19.8825 7.23 1.8075
88 1 18.075 9.0375 1.8075
89 1 21.69 7.23 0
90 1 23.4975 9.0375 0
91 1 23.4975 7.23 1.8075
92 1 21.69 9.0375 1.8075
93 1 25.305 7.23 0
94 1 27.1125 9.0375 0
95 1 27.1125 7.23 1.8075
96 1 25.305 9.0375 1.8075
97 1 0 10.845 0
98 1 1.8075 12.6525 0
99 1 1.8075 10.845 1.8075
100 1 0 12.6525 1.8075
101 1 3.615 10.845 0
102 1 5.4225 12.6525 0
103 1 5.4225 10.845 1.8075
104 1 3.615 12.6525 1.8075
105 1 7.23 10.845 0
106 1 9.0375 12.6525 0
107 1 9.0375 10.845 1.8075
108 1 7.23 12.6525 1.8075
109 1 10.845 10.845 0
110 1 12.6525 12.6525 0
111 1 12.6525 10.845 1.8075
112 1 10.845 12.6525 1.8075
113 1 14.46 10.845 0
114 1 16.2675 12.6525 0
115 1 16.2675 10.845 1.8075
116 1 14.46 12.6525 1.8075
117 1 18.075 10.845 0
118 1 19.8825 12.6525 0
119 1 19.8825 10.845 1.8075
120 1 18.075 12.6525 1.8075
121 1 21.69 10.845 0
122 1 23.4975 12.6525 0
123 1 23.4975 10.845 1.8075
124 1 21.69 12.6525 1.8075
125 1 25.305 10.845 0
126 1 27.1125 12.6525 0
127 1 27.1125 10.845 1.8075
128 1 25.305 12.6525 1.8075
129 1 0 14.46 0
130 1 1.8075 16.2675 0
131 1 1.8075 14.46 1.8075
132 1 0 16.2675 1.8075
133 1 3.615 14.46 0
134 1 5.4225 16.2675 0
135 1 5.4225 14.46 1.8075
136 1 3.615 16.2675 1.8075
137 1 7.23 14.46 0
138 1 9.0375 16.2675 0
139 1 9.0375 14.46 1.8075
140 1 7.23 16.2675 1.8075
141 1 10.845 14.46 0
142 1 12.6525 16.2675 0
143 1 12.6525 14.46 1.8075
144 1 10.845 16.2675 1.8075
145 1 14.46 14.46 0
146 1 16.2675 16.2675 0
147 1 16.2675 14.46 1.8075
148 1 14.46 16.2675 1.8075
149 1 18.075 14.46 0
150 1 19.8825 16.2675 0
151 1 19.8825 14.46 1.8075
152 1 18.075 16.2675 1.8075
153 1 21.69 14.46 0
154 1 23.4975 16.2675 0
155 1 23.4975 14.46 1.8075
156 1 21.69 16.2675 1.8075
157 1 25.305 14.46 0
158 1 27.1125 16.2675 0
159 1 27.1125 14.46 1.8075
160 1 25.305 16.2675 1.8075
161 1 0 18.075 0
162 1 1.8075 19.8825 0
163 1 1.8075 18.075 1.8075
164 1 0 19.8825 1.8075
165 1 3.615 18.075 0
166 1 5.4225 19.8825 0
167 1 5.4225 18.075 1.8075
168 1 3.615 19.8825 1.8075
169 1 7.23 18.075 0
170 1 9.0375 19.8825 0
171 1 9.0375 18.075 1.8075
172 1 7.23 19.8825 1.8075
173 1 10.845 18.075 0
174 1 12.6525 19.8825 0
175 1 12.6525 18.075 1.8075
176 1 10.845 19.8825 1.8075
177 1 14.46 18.075 0
178 1 16.2675 19.8825 0
179 1 16.2675 18.075 1.8075
180 1 14.46 19.8825 1.8075
181 1 18.075 18.075 0
182 1 19.8825 19.8825 0
183 1 19.8825 18.075 1.8075
184 1 18.075 19.8825 1.8075
185 1 21.69 18.075 0
186 1 23.4975 19.8825 0
187 1 23.4975 18.075 1.8075
188 1 21.69 19.8825 1.8075
189 1 25.305 18.075 0
190 1 27.1125 19.8825 0
191 1 27.1125 18.075 1.8075
192 1 25.305 19.8825 1.8075
193 1 0 21.69 0
194 1 1.8075 23.4975 0
195 1 1.8075 21.69 1.8075
196 1 0 23.4975 1.8075
197 1 3.615 21.69 0
198 1 5.4225 23.4975 0
199 1 5.4225 21.69 1.8075
200 1 3.615 23.4975 1.8075
201 1 7.23 21.69 0
202 1 9.0375 23.4975 0
203 1 9.0375 21.69 1.8075
204 1 7.23 23.4975 1.8075
205 1 10.845 21.69 0
206 1 12.6525 23.4975 0
207 1 12.6525 21.69 1.8075
208 1 10.845 23.4975 1.8075
209 1 14.46 21.69 0
210 1 16.2675 23.4975 0
211 1 16.2675 21.69 1.8075
212 1 14.46 23.4975 1.8075
213 1 18.075 21.69 0
214 1 19.8825 23.4975 0
215 1 19.8825 21.69 1.8075
216 1 18.075 23.4975 1.8075
217 1 21.69 21.69 0
218 1 23.4975 23.4975 0
219 1 23.4975 21.69 1.8075
220 1 21.69 23.4975 1.8075
221 1 25.305 21.69 0
222 1 27.1125 23.4975 0
223 1 27.1125 21.69 1.8075
224 1 25.305 23.4975 1.8075
225 1 0 25.305 0
226 1 1.8075 27.1125 0
227 1 1.8075 25.305 1.8075
228 1 0 27.1125 1.8075
229 1 3.615 25.305 0
230 1 5.4225 27.1125 0
231 1 5.4225 25.305 1.8075
232 1 3.615 27.1125 1.8075
233 1 7.23 25.305 0
234 1 9.0375 27.1125 0
235 1 9.0375 25.305 1.8075
236 1 7.23 27.1125 1.8075
237 1 10.845 25.305 0
238 1 12.6525 27.1125 0
239 1 12.6525 25.305 1.8075
240 1 10.845 27.1125 1.8075
241 1 14.46 25.305 0
242 1 16.2675 27.1125 0
243 1 16.2675 25.305 1.8075
244 1 14.46 27.1125 1.8075
245 1 18.075 25.305 0
246 1 19.8825 27.1125 0
247 1 19.8825 25.305 1.8075
248 1 18.075 27.1125 1.8075
249 1 21.69 25.305 0
250 1 23.4975 27.1125 0
251 1 23.4975 25.305 1.8075
252 1 21.69 27.1125 1.8075
253 1 25.305 25.305 0
254 1 27.1125 27.1125 0
255 1 27.1125 25.305 1.8075
256 1 25.305 27.1125 1.8075
257 1 -0.00977035 -0.138174 3.57397
258 1 1.81559 1.82909 3.6133
259 1 1.97305 0.0606787 5.42311
260 1 28.8251 1.76221 5.37064
261 1 3.67735 28.9003 3.64468
262 1 5.49126 1.91758 3.68867
263 1 5.4625 28.9018 5.55387
264 1 3.65983 1.82581 5.49379
265 1 7.24343 -0.0972312 3.71045
266 1 9.14266 1.70816 3.65491
267 1 9.18217 28.8903 5.33959
268 1 7.30453 1.73782 5.57765
269 1 10.9406 -0.0774663 3.72316
270 1 12.6045 1.76726 3.61056
271 1 12.825 -0.106912 5.48026
272 1 10.8333 1.71233 5.49283
273 1 14.5129 28.9495 3.70686
274 1 16.3354 1.88368 3.77205
275 1 16.2673 0.0342734 5.47607
276 1 14.5496 1.8526 5.45107
277 1 17.9858 28.9698 3.72429
278 1 19.8763 1.73485 3.50859
279 1 19.8848 -0.0336944 5.43473
280 1 18.1529 1.84221 5.50533
281 1 21.7484 0.0073409 3.60518
282 1 23.5903 1.73714 3.65894
283 1 23.7832 28.9764 5.69277
284 1 21.715 1.6878 5.44122
285 1 25.3258 28.8063 3.65488
286 1 27.1496 1.82022 3.64505
287 1 27.0506 -0.162549 5.47916
288 1 25.4274 1.87658 5.58332
289 1 0.0179315 3.64559 3.61048
290 1 1.84083 5.45479 3.77515
291 1 1.75241 3.59447 5.43984
292 1 -0.0488834 5.41909 5.5901
293 1 3.65745 3.64288 3.53392
294 1 5.32074 5.42135 3.75838
295 1 5.31319 3.62287 5.4823
296 1 3.56069 5.37146 5.60253
297 1 7.14542 3.60331 3.70822
298 1 8.9998 5.27209 3.60295
299 1 8.88276 3.47039 5.56171
300 1 7.13702 5.35157 5.56069
301 1 10.8025 3.55798 3.75269
302 1 12.6226 5.3384 3.65646
303 1 12.653 3.47208 5.41546
304 1 10.7203 5.27017 5.54167
305 1 14.44 3.53563 3.62333
306 1 16.2429 5.37553 3.70795
307 1 16.2421 3.57038 5.4548
308 1 14.3603 5.24778 5.38591
309 1 18.191 3.58085 3.54499
310 1 20.0102 5.47618 3.62904
311 1 19.9256 3.58304 5.39105
312 1 18.0538 5.3903 5.48185
313 1 21.5813 3.51765 3.57291
314 1 23.453 5.39146 3.48101
315 1 23.5499 3.59213 5.42191
316 1 21.6792 5.49463 5.43794
317 1 25.3257 3.73621 3.58733
318 1 27.1792 5.46523 3.60662
319 1 27.1613 3.67072 5.48322
320 1 25.3425 5.37289 5.44813
321 1 0.0637382 7.21309 3.61241
322 1 1.82103 8.95415 3.52929
323 1 1.78662 7.23392 5.45118
324 1 0.013156 8.95075 5.465
325 1 3.51669 7.19498 3.65253
326 1 5.32948 8.89285 3.71458
327 1 5.34201 7.18698 5.5817
328 1 3.5586 9.15211 5.50063
329 1 7.19861 7.30185 3.6139
330 1 9.05729 9.00681 3.63164
331 1 9.05158 7.15924 5.45638
332 1 7.23875 9.09424 5.57292
333 1 10.8832 7.21174 3.56445
334 1 12.5498 9.04536 3.71892
335 1 12.5319 6.93129 5.57885
336 1 10.771 8.96425 5.5386
337 1 14.3985 7.05848 3.58496
338 1 16.203 8.75851 3.67534
339 1 16.1438 7.01237 5.52797
340 1 14.3965 8.9534 5.40055
341 1 18.0329 7.21606 3.71364
342 1 19.8446 9.03429 3.71223
343 1 19.7153 7.26604 5.61632
344 1 17.9484 9.0187 5.62277
345 1 21.5886 7.27886 3.69962
346 1 23.4673 9.05893 3.71145
347 1 23.5105 7.14275 5.51046
348 1 21.6545 8.99438 5.64764
349 1 25.3827 7.2586 3.66792
350 1 27.1238 9.0096 3.62918
351 1 27.2456 7.1398 5.54357
352 1 25.3513 8.99403 5.46402
353 1 28.8864 10.8574 3.62976
354 1 1.7013 12.7009 3.66909
355 1 1.78066 10.8378 5.40182
356 1 -0.0692707 12.8105 5.58186
357 1 3.5633 10.7008 3.51541
358 1 5.35825 12.6261 3.68883
359 1 5.42639 10.8612 5.38634
360 1 3.52745 12.6269 5.40353
361 1 7.24111 10.7868 3.54308
362 1 8.94897 12.6021 3.64475
363 1 9.0416 10.7522 5.4618
364 1 7.17664 12.5485 5.41947
365 1 10.8308 10.75 3.68189
366 1 12.4896 12.6089 3.6
367 1 12.6244 10.7815 5.51891
368 1 10.777 12.6477 5.40508
369 1 14.2991 10.8525 3.57918
370 1 16.217 12.6007 3.70415
371 1 16.1699 10.8047 5.52231
372 1 14.3979 12.612 5.50079
373 1 18.12 10.7391 3.62013
374 1 19.8796 12.6223 3.55271
375 1 19.769 10.8665 5.49626
376 1 17.9739 12.6586 5.48749
377 1 21.6771 10.7698 3.65225
378 1 23.5181 12.6172 3.55992
379 1 23.544 10.8378 5.49036
380 1 21.5929 12.6419 5.37002
381 1 25.2988 10.7289 3.78734
382 1 27.1696 12.5989 3.62214
383 1 27.1568 10.798 5.37846
384 1 25.3205 12.6481 5.47392
385 1 28.8085 14.6226 3.62931
386 1 1.88183 16.3307 3.60961
387 1 1.7837 14.4633 5.53799
388 1 28.8814 16.3323 5.50044
389 1 3.63373 14.5035 3.69074
390 1 5.32259 16.3238 3.62854
391 1 5.39881 14.4677 5.38125
392 1 3.54802 16.2334 5.54045
393 1 7.20572 14.4824 3.54426
394 1 9.0586 16.3138 3.6537
395 1 8.96582 14.3546 5.45152
396 1 7.15765 16.4273 5.46463
397 1 10.8003 14.4697 3.62048
398 1 12.6569 16.4448 3.66203
399 1 12.5704 14.3858 5.43513
400 1 10.8715 16.3397 5.50474
401 1 14.3311 14.5256 3.6499
402 1 16.2439 16.2305 3.60729
403 1 16.2097 14.5643 5.47544
404 1 14.3247 16.2699 5.45466
405 1 17.9862 14.4108 3.53878
406 1 19.8864 16.0257 3.73321
407 1 19.9232 14.4216 5.66861
408 1 18.1721 16.249 5.48818
409 1 21.6624 14.4214 3.65364
410 1 23.563 16.183 3.59639
411 1 23.3463 14.5424 5.5299
412 1 21.5951 16.3924 5.51825
413 1 25.3485 14.3546 3.54527
414 1 27.1033 16.3289 3.74328
415 1 27.09 14.4857 5.46764
416 1 25.1667 16.1957 5.57822
417 1 29.0164 18.0099 3.67192
418 1 1.75213 19.8977 3.58689
419 1 1.82864 18.018 5.44843
420 1 28.9481 19.8243 5.49105
421 1 3.52169 18.1298 3.50493
422 1 5.4805 19.8969 3.54133
423 1 5.33937 18.1914 5.36022
424 1 3.63335 19.9152 5.50107
425 1 7.18991 18.0928 3.63635
426 1 8.92411 19.9916 3.68124
427 1 9.1 18.1362 5.42765
428 1 7.28216 19.8852 5.46829
429 1 10.6957 18.1602 3.65372
430 1 12.6853 19.8982 3.64673
431 1 12.6093 18.1574 5.45872
432 1 10.8188 20.1113 5.61919
433 1 14.4703 18.1069 3.72893
434 1 16.2021 19.9173 3.67079
435 1 16.3198 17.9595 5.35972
436 1 14.4503 20.0183 5.58175
437 1 18.052 17.8813 3.56011
438 1 19.8991 19.9435 3.64258
439 1 19.8833 18.0445 5.55295
440 1 18.1218 19.8785 5.41893
441 1 21.5562 18.0305 3.72902
442 1 23.4276 19.9238 3.61939
443 1 23.4697 18.0043 5.5426
444 1 21.595 19.939 5.42878
445 1 25.24 18.0648 3.78102
446 1 27.1762 19.7607 3.66666
447 1 27.1663 18.0816 5.55492
448 1 25.2097 19.7771 5.52183
449 1 0.034404 21.5516 3.60349
450 1 1.85783 23.3948 3.70808
451 1 1.97992 21.6105 5.54915
452 1 0.134248 23.4982 5.45654
453 1 3.71234 21.5382 3.55602
454 1 5.4487 23.5577 3.62437
455 1 5.42839 21.7575 5.55688
456 1 3.75561 23.6483 5.49887
457 1 7.17632 21.6199 3.57766
458 1 9.01511 23.5268 3.55929
459 1 8.97314 21.7997 5.60636
460 1 7.21582 23.5645 5.44109
461 1 10.814 21.6185 3.6315
462 1 12.6051 23.3993 3.6897
463 1 12.6876 21.7551 5.57895
464 1 10.6897 23.4816 5.48465
465 1 14.4616 21.796 3.67065
466 1 16.2515 23.5278 3.52883
467 1 16.2837 21.6711 5.35024
468 1 14.5732 23.497 5.4837
469 1 18.023 21.6764 3.64275
470 1 19.8895 23.5087 3.67697
471 1 19.9756 21.6587 5.49223
472 1 18.1238 23.5438 5.49672
473 1 21.6307 21.6944 3.67138
474 1 23.4609 23.5323 3.50385
475 1 23.5392 21.5672 5.39196
476 1 21.7789 23.365 5.46522
477 1 25.3965 21.6327 3.58445
478 1 27.1522 23.5195 3.57987
479 1 27.2086 21.6696 5.42512
480 1 25.2967 23.5047 5.40561
481 1 28.9793 25.2679 3.60135
482 1 1.84973 27.1527 3.68926
483 1 1.81335 25.2967 5.54839
484 1 28.9457 26.992 5.44384
485 1 3.6455 25.3458 3.67307
486 1 5.43063 27.0438 3.56846
487 1 5.48115 25.3451 5.55497
488 1 3.74116 27.1493 5.43466
489 1 7.27548 25.3191 3.64115
490 1 9.1663 27.0261 3.55243
491 1 9.00323 25.3076 5.57115
492 1 7.23868 27.0917 5.52689
493 1 10.8091 25.2707 3.78239
494 1 12.6005 27.0122 3.53877
495 1 12.6648 25.2713 5.49945
496 1 10.8825 27.0429 5.47635
497 1 14.4476 25.3281 3.65148
498 1 16.1915 27.1341 3.58002
499 1 16.2511 25.2975 5.44357
500 1 14.4309 27.027 5.546
501 1 18.109 25.3476 3.67423
502 1 19.9832 27.194 3.62435
503 1 20.0027 25.38 5.43514
504 1 18.0456 27.0128 5.55648
505 1 21.7863 25.2543 3.7513
506 1 23.4448 27.1621 3.53737
507 1 23.564 25.2926 5.46794
508 1 21.7426 27.1728 5.60951
509 1 25.2052 25.1769 3.55859
510 1 27.158 27.0779 3.63545
511 1 27.145 25.1357 5.41403
512 1 25.2562 26.9826 5.5397
513 1 -0.139632 -0.101638 7.27603
514 1 1.65857 1.69621 7.28262
515 1 1.66959 -0.105155 9.16712
516 1 28.8871 1.79774 9.16363
517 1 3.66049 28.9401 7.40904
518 1 5.47381 1.75742 7.43558
519 1 5.32627 28.8868 9.31389
520 1 3.56089 1.76632 9.25059
521 1 7.22719 28.7202 7.32451
522 1 8.96341 1.6982 7.36096
523 1 9.11577 28.7735 9.19554
524 1 7.25292 1.72012 9.2006
525 1 10.9134 0.0835479 7.37184
526 1 12.6504 1.87715 7.28561
527 1 12.772 29.0107 9.04881
528 1 10.9529 1.7007 9.24629
529 1 14.6551 28.8489 7.28024
530 1 16.3898 1.74687 7.3476
531 1 16.39 -0.120887 9.16211
532 1 14.5444 1.73903 9.13379
533 1 18.2219 28.9279 7.42654
534 1 20.0234 1.86499 7.30699
535 1 20.0091 29.0456 9.13866
536 1 18.081 1.92977 9.13988
537 1 21.7916 0.0745176 7.34231
538 1 23.6086 1.87498 7.37858
539 1 23.57 -0.0124186 9.04433
540 1 21.7598 1.94411 9.13979
541 1 25.4642 28.7665 7.34342
542 1 27.087 1.76891 7.33876
543 1 27.1493 28.7992 9.15722
544 1 25.3161 1.67846 9.06297
545 1 -0.108187 3.61088 7.2154
546 1 1.86236 5.29471 7.42922
547 1 1.67607 3.55644 9.13979
548 1 28.84 5.33945 9.12162
549 1 3.61272 3.51601 7.35952
550 1 5.38643 5.43044 7.42021
551 1 5.43465 3.46039 9.27602
552 1 3.63177 5.32177 9.19712
553 1 7.04259 3.50105 7.34903
554 1 9.00944 5.28284 7.38689
555 1 8.86204 3.62517 9.21152
556 1 7.12239 5.43756 9.1812
557 1 10.9515 3.46414 7.43327
558 1 12.6548 5.23597 7.3034
559 1 12.6845 3.55902 9.13576
560 1 10.671 5.37405 9.2526
561 1 14.5283 3.52847 7.44025
562 1 16.2431 5.40877 7.2862
563 1 16.3929 3.6625 9.16854
564 1 14.5106 5.35857 9.19931
565 1 18.0923 3.63642 7.28394
566 1 19.977 5.40124 7.45262
567 1 19.903 3.71091 9.07975
568 1 18.1299 5.52049 9.15837
569 1 21.7036 3.48932 7.06004
570 1 23.5688 5.26543 7.29144
571 1 23.5856 3.64952 9.14357
572 1 21.9182 5.41307 9.14023
573 1 25.3816 3.61646 7.36945
574 1 27.0688 5.39724 7.3181
575 1 27.0551 3.60001 9.12287
576 1 25.3517 5.40575 9.26261
577 1 28.9156 7.23856 7.3173
578 1 1.8368 9.01263 7.33904
579 1 1.81046 7.12103 9.20543
580 1 -0.0253582 9.05429 9.12539
581 1 3.50851 7.20203 7.5255
582 1 5.34571 8.97183 7.32021
583 1 5.58198 7.30009 9.2438
584 1 3.56251 9.11709 9.1416
585 1 7.21912 7.18982 7.28561
586 1 9.0003 8.97531 7.36389
587 1 8.89251 7.14143 9.21247
588 1 7.2864 9.05439 9.20125
589 1 10.7732 7.01246 7.319
590 1 12.5613 8.93791 7.25283
591 1 12.6217 7.0564 9.12611
592 1 10.949 8.83446 9.16952
593 1 14.417 6.96704 7.23311
594 1 16.201 8.93553 7.41776
595 1 16.208 7.32692 9.21708
596 1 14.362 8.92483 9.06733
597 1 17.9628 7.18694 7.34563
598 1 19.9275 9.18974 7.32669
599 1 19.9715 7.47375 9.14889
600 1 17.9732 9.06463 9.09871
601 1 21.712 7.20178 7.39914
602 1 23.4715 9.05219 7.41005
603 1 23.5248 7.29029 9.14287
604 1 21.7593 9.03481 9.08814
605 1 25.2965 7.17169 7.33382
606 1 26.9864 9.05108 7.31218
607 1 27.1094 7.24135 9.20238
608 1 25.4528 9.02324 9.18035
609 1 0.0300105 10.8316 7.28736
610 1 1.77224 12.6578 7.36025
611 1 1.80812 10.8676 9.1748
612 1 0.0650209 12.8004 9.03138
613 1 3.6636 10.8105 7.28483
614 1 5.30316 12.7057 7.27093
615 1 5.42105 10.9971 9.00835
616 1 3.67102 12.7746 9.22021
617 1 7.09796 10.9295 7.37835
618 1 8.96184 12.5779 7.30701
619 1 9.1916 10.8673 9.16557
620 1 7.10684 12.8092 9.12563
621 1 10.7926 10.8394 7.33073
622 1 12.613 12.6746 7.21707
623 1 12.5936 10.8121 9.05112
624 1 11.0317 12.6382 9.12327
625 1 14.522 10.856 7.34624
626 1 16.1526 12.5482 7.45138
627 1 16.1532 10.8758 9.20854
628 1 14.4137 12.7558 9.14754
629 1 18.0358 10.906 7.42521
630 1 19.9749 12.5771 7.31968
631 1 19.9022 10.9625 9.16987
632 1 18.0584 12.6754 9.20966
633 1 21.6944 10.9081 7.29606
634 1 23.4661 12.6742 7.11329
635 1 23.6139 10.9836 9.04752
636 1 21.6807 12.6955 9.03458
637 1 25.3783 10.7745 7.26972
638 1 27.0666 12.66 7.25742
639 1 27.1415 10.9027 9.14627
640 1 25.3519 12.7141 9.13031
641 1 28.821 14.5113 7.27884
642 1 1.7756 16.1626 7.37186
643 1 1.83096 14.4971 9.22043
644 1 0.0197312 16.255 9.16056
645 1 3.59115 14.5522 7.32263
646 1 5.49569 16.5081 7.38454
647 1 5.51408 14.5931 9.04981
648 1 3.74649 16.3247 9.21031
649 1 7.14296 14.5183 7.14285
650 1 9.05377 16.2716 7.11193
651 1 9.07362 14.5315 9.0942
652 1 7.33962 16.4683 9.18527
653 1 10.6909 14.4923 7.20337
654 1 12.5545 16.1092 7.36291
655 1 12.6748 14.4066 9.27418
656 1 10.7668 16.3649 9.05111
657 1 14.373 14.4626 7.29508
658 1 15.9341 16.3313 7.13206
659 1 16.1824 14.523 9.06936
660 1 14.3851 16.2 9.05881
661 1 18.0545 14.3522 7.33678
662 1 19.7958 16.3468 7.30806
663 1 19.7592 14.4133 9.02458
664 1 17.8666 16.2471 9.08297
665 1 21.7107 14.459 7.38791
666 1 23.461 16.2877 7.53102
667 1 23.5014 14.2271 9.1799
668 1 21.5074 16.2121 9.21527
669 1 25.3516 14.5096 7.39105
670 1 27.1657 16.3332 7.28987
671 1 27.1588 14.4184 9.12843
672 1 25.3077 16.3456 9.26812
673 1 0.156219 18.153 7.3943
674 1 1.85934 19.8547 7.38927
675 1 1.8142 17.9556 9.27683
676 1 0.0461431 19.8925 9.1979
677 1 3.55536 18.0464 7.35714
678 1 5.3706 19.9081 7.27627
679 1 5.59764 18.1341 9.12006
680 1 3.66256 19.8803 9.23871
681 1 7.31103 18.1161 7.25108
682 1 9.13836 19.9733 7.27982
683 1 9.0671 18.1884 9.13507
684 1 7.23837 19.9003 9.14026
685 1 10.9193 18.1959 7.22837
686 1 12.5904 19.9405 7.38736
687 1 12.5959 18.1232 9.10105
688 1 10.9066 19.8689 9.12684
689 1 14.3101 18.1114 7.13788
690 1 16.2044 19.961 7.20906
691 1 16.2224 17.9876 8.99189
692 1 14.5723 19.9126 9.29623
693 1 17.9446 18.1747 7.21055
694 1 19.8641 19.7839 7.46565
695 1 19.7745 18.0499 9.17309
696 1 17.9367 19.7434 9.1817
697 1 21.6646 18.1318 7.26093
698 1 23.4897 19.8189 7.28993
699 1 23.4748 18.15 9.22586
700 1 21.6651 19.9435 9.12897
701 1 25.2922 17.936 7.39609
702 1 27.0543 19.7848 7.24801
703 1 27.2775 18.1054 9.17665
704 1 25.3148 19.68 9.24782
705 1 28.9741 21.6663 7.41525
706 1 1.81842 23.3904 7.37663
707 1 1.87116 21.6267 9.26693
708 1 28.9221 23.3679 9.16873
709 1 3.6461 21.7123 7.36244
710 1 5.42161 23.4552 7.29148
711 1 5.39273 21.6446 9.26494
712 1 3.68657 23.5862 9.15514
713 1 7.20795 21.725 7.32599
714 1 8.89443 23.5177 7.49803
715 1 9.09332 21.793 9.31955
716 1 7.11511 23.3649 9.29789
717 1 10.7514 21.8806 7.37718
718 1 12.7079 23.5173 7.43639
719 1 12.5454 21.7117 9.36618
720 1 11.0632 23.7138 9.26933
721 1 14.4765 21.7172 7.38687
722 1 16.3238 23.4623 7.09756
723 1 16.3494 21.6309 9.16996
724 1 14.5162 23.465 9.07113
725 1 18.1247 21.6711 7.26982
726 1 19.982 23.3002 7.25844
727 1 19.8901 21.6578 9.16065
728 1 18.1454 23.567 9.04014
729 1 21.7521 21.5384 7.3523
730 1 23.6594 23.2668 7.34573
731 1 23.5859 21.5494 9.18063
732 1 21.6962 23.4759 9.12216
733 1 25.3493 21.6279 7.30954
734 1 27.0392 23.4456 7.25219
735 1 27.1032 21.6795 9.19541
736 1 25.4272 23.4091 9.24825
737 1 0.11912 25.1052 7.29629
738 1 1.87094 27.2134 7.39392
739 1 1.85591 25.2728 9.09912
740 1 28.8694 26.9423 9.10508
741 1 3.71095 25.3008 7.41821
742 1 5.46415 27.1024 7.35664
743 1 5.5074 25.2425 9.39936
744 1 3.61273 27.0588 9.23008
745 1 7.09903 25.3413 7.46918
746 1 9.10964 27.2236 7.23548
747 1 9.05383 25.3249 9.20125
748 1 7.34435 27.1022 9.24967
749 1 10.8366 25.1704 7.27335
750 1 12.641 27.1158 7.30768
751 1 12.7803 25.5125 9.04638
752 1 10.7719 27.0872 9.12094
753 1 14.4674 25.3929 7.25269
754 1 16.2479 27.0773 7.33487
755 1 16.2293 25.1446 9.09697
756 1 14.5076 27.2255 9.12882
757 1 18.158 25.3975 7.40808
758 1 19.8908 27.2044 7.28193
759 1 19.8771 25.3778 9.07806
760 1 18.1709 27.1453 9.18174
761 1 21.6755 25.1627 7.29893
762 1 23.555 27.1378 7.38912
763 1 23.5157 25.1606 9.04556
764 1 21.764 27.0915 9.12418
765 1 25.273 25.2695 7.34371
766 1 27.1752 26.9007 7.38336
767 1 27.1575 25.1965 9.22738
768 1 25.333 26.9702 9.19076
769 1 28.8627 -0.0239251 10.9864
770 1 1.83826 1.79173 10.9109
771 1 1.65608 -0.0732203 12.8182
772 1 28.8256 1.8341 12.7852
773 1 3.52324 28.849 11.0365
774 1 5.44625 1.81217 11.2558
775 1 5.34373 -0.017512 12.9937
776 1 3.55669 1.72087 12.8639
777 1 7.18643 0.053114 11.063
778 1 8.90184 1.88344 10.99
779 1 9.12511 -0.137603 12.687
780 1 7.35149 1.74062 12.8209
781 1 10.8512 -0.0229075 10.9861
782 1 12.8027 1.69138 11.0196
783 1 12.813 -0.0153613 12.9108
784 1 10.8551 1.75215 12.7388
785 1 14.4834 28.893 11.0443
786 1 16.3445 1.71771 10.9714
787 1 16.4464 28.9208 12.8087
788 1 14.5983 1.78234 12.8483
789 1 18.1638 28.9224 10.9911
790 1 19.8497 1.76827 10.9801
791 1 19.9085 28.8517 12.8321
792 1 18.1882 1.8665 12.7033
793 1 21.7276 -0.04958 10.9321
794 1 23.5215 1.84165 10.9008
795 1 23.3233 0.0623367 12.8558
796 1 21.5509 1.73282 12.6702
797 1 25.3381 28.865 10.9244
798 1 27.0584 1.7844 10.9144
799 1 26.9847 28.8215 12.7031
800 1 25.2772 1.78134 12.7417
801 1 -0.0708718 3.52892 10.9167
802 1 1.82092 5.3787 10.8618
803 1 1.84067 3.53201 12.8352
804 1 28.9171 5.2972 12.8289
805 1 3.59045 3.6045 11.0244
806 1 5.35005 5.34523 11.0532
807 1 5.41199 3.53864 12.896
808 1 3.52089 5.40217 12.7426
809 1 7.12121 3.71788 11.1685
810 1 9.0486 5.4839 11.0489
811 1 9.13334 3.58656 12.8898
812 1 7.27169 5.31584 12.9728
813 1 10.8295 3.51043 10.9794
814 1 12.5143 5.22394 10.8881
815 1 12.6439 3.66161 12.7856
816 1 10.7699 5.33645 12.9512
817 1 14.5534 3.54276 10.9049
818 1 16.2606 5.5721 11.028
819 1 16.3551 3.69002 12.6652
820 1 14.3334 5.42394 12.77
821 1 18.1922 3.71202 11.0516
822 1 20.022 5.46798 10.9289
823 1 19.8238 3.72638 12.706
824 1 18.112 5.48258 12.7263
825 1 21.6927 3.59768 11.1256
826 1 23.4152 5.47857 10.9873
827 1 23.475 3.61298 12.7617
828 1 21.7445 5.65677 12.7756
829 1 25.2598 3.56196 11.0772
830 1 27.0576 5.32984 11.0736
831 1 27.0679 3.53139 12.8308
832 1 25.2373 5.33603 12.8299
833 1 -0.151587 7.24147 10.9634
834 1 1.88548 9.10355 10.9167
835 1 1.69883 7.19889 12.7232
836 1 29.0064 9.05649 12.7603
837 1 3.6119 7.28717 10.9816
838 1 5.45319 9.21082 10.9606
839 1 5.34717 7.19706 12.6844
840 1 3.65839 9.00471 12.873
841 1 7.18296 7.19844 10.9892
842 1 9.06279 9.01476 10.847
843 1 8.92932 7.23566 12.6811
844 1 7.16459 9.00981 12.7854
845 1 10.8143 7.14811 11.0715
846 1 12.6084 8.85808 10.97
847 1 12.66 7.10048 12.7457
848 1 10.7363 8.96449 12.9097
849 1 14.4309 7.12964 10.89
850 1 16.2226 9.07093 11.061
851 1 16.3038 7.26464 12.8168
852 1 14.4211 8.80187 12.854
853 1 18.1125 7.23219 10.9398
854 1 19.8242 9.15979 10.9758
855 1 20.0588 7.39472 12.7866
856 1 18.0917 9.09975 12.9166
857 1 21.7976 7.40977 10.9737
858 1 23.6433 9.0903 10.959
859 1 23.5852 7.31109 12.7277
860 1 21.8025 9.13385 12.6795
861 1 25.3519 6.99897 11.106
862 1 27.1347 9.05799 11.0522
863 1 27.0987 7.12584 12.8228
864 1 25.3799 9.05598 12.8427
865 1 0.0170599 10.9652 10.8972
866 1 1.75621 12.7018 10.9548
867 1 1.78683 11.0194 12.7058
868 1 28.9774 12.7413 12.8367
869 1 3.64906 10.8532 10.8571
870 1 5.39231 12.7712 11.0638
871 1 5.46127 10.7954 12.7888
872 1 3.66043 12.668 12.784
873 1 7.28957 10.9464 10.8607
874 1 9.04421 12.6803 10.9192
875 1 8.9649 10.82 12.8098
876 1 7.21377 12.6687 12.7782
877 1 10.8524 10.6865 10.9719
878 1 12.5897 12.6497 10.8912
879 1 12.6095 10.6683 12.7906
880 1 10.8468 12.4951 12.6877
881 1 14.3938 10.789 11.0143
882 1 16.1219 12.6697 10.884
883 1 16.3719 10.8222 12.784
884 1 14.3585 12.5785 12.7171
885 1 18.0441 10.814 10.9363
886 1 19.8043 12.4961 11.123
887 1 19.9036 10.8607 12.8505
888 1 18.063 12.6727 12.9308
889 1 21.7496 10.9133 10.9164
890 1 23.5917 12.558 11.067
891 1 23.5123 10.8864 12.7833
892 1 21.7337 12.6508 12.8201
893 1 25.3735 10.9345 11.0526
894 1 27.0808 12.678 10.9874
895 1 27.224 10.8921 12.8324
896 1 25.2711 12.5858 12.9072
897 1 28.8314 14.5641 10.9503
898 1 1.82351 16.1401 11.0632
899 1 1.94954 14.374 12.7768
900 1 29.0302 16.3715 12.9615
901 1 3.73151 14.4791 11.0585
902 1 5.4852 16.4055 10.9204
903 1 5.52418 14.5573 12.8272
904 1 3.75983 16.3399 12.8526
905 1 7.32332 14.6117 11.0141
906 1 8.97886 16.4421 11.0838
907 1 9.06016 14.3248 12.8683
908 1 7.35932 16.3853 12.8564
909 1 10.756 14.5273 11.0536
910 1 12.583 16.269 10.8526
911 1 12.5953 14.4854 12.8285
912 1 10.784 16.2335 12.8583
913 1 14.4016 14.5172 10.9523
914 1 16.1801 16.1498 10.99
915 1 16.1997 14.3781 12.8222
916 1 14.4423 16.1866 12.8748
917 1 18.0636 14.3629 11.0266
918 1 19.812 16.2619 10.8352
919 1 19.8323 14.498 12.8498
920 1 18.0245 16.1418 12.8899
921 1 21.5736 14.2433 10.9649
922 1 23.4287 16.1787 11.0734
923 1 23.4622 14.4404 12.7802
924 1 21.5025 16.2136 12.8489
925 1 25.2459 14.4154 11.0375
926 1 27.1885 16.2839 10.9643
927 1 27.1653 14.4753 12.8717
928 1 25.2864 16.093 12.7725
929 1 29.018 18.0371 10.9156
930 1 1.81065 19.8283 11.0655
931 1 1.85635 18.0601 12.7755
932 1 29.0013 20.0496 12.7871
933 1 3.64298 18.1648 10.9605
934 1 5.53527 20.0024 11.2458
935 1 5.48755 18.076 12.8136
936 1 3.7355 19.8928 12.9605
937 1 7.31111 18.3793 11.0943
938 1 9.2466 19.9313 11.0066
939 1 9.11645 18.1601 12.8677
940 1 7.33675 19.9512 12.9763
941 1 11.0115 17.9732 10.9172
942 1 12.6726 19.9155 10.9336
943 1 12.6356 18.0601 12.9409
944 1 10.9131 19.8308 12.8817
945 1 14.3839 18.0308 10.9981
946 1 16.246 19.865 11.0986
947 1 16.1825 18.0002 12.8558
948 1 14.5371 19.8582 12.8939
949 1 17.9158 17.9059 10.9773
950 1 19.8496 19.9126 10.9584
951 1 19.7841 18.0213 12.8051
952 1 18.162 19.7557 12.8258
953 1 21.5371 18.1639 10.9314
954 1 23.4375 19.9332 10.9866
955 1 23.447 17.9569 12.827
956 1 21.5668 19.8187 12.7952
957 1 25.2585 18.0586 11.1353
958 1 27.1789 19.8472 11.074
959 1 27.1464 18.0925 12.804
960 1 25.4016 19.95 12.8929
961 1 28.9645 21.67 11.1191
962 1 1.81715 23.4946 11.0043
963 1 1.87396 21.764 12.7708
964 1 0.153817 23.4368 12.8598
965 1 3.6653 21.7399 11.0234
966 1 5.44375 23.5405 11.1722
967 1 5.4648 21.7951 12.9192
968 1 3.69266 23.5545 12.962
969 1 7.4249 21.7002 11.0215
970 1 9.22906 23.5604 11.0598
971 1 9.02583 21.752 12.8599
972 1 7.37792 23.5697 12.9741
973 1 10.8295 21.7146 11.1625
974 1 12.832 23.5818 11.0194
975 1 12.6557 21.7172 12.899
976 1 10.9454 23.4469 12.9187
977 1 14.4664 21.6946 11.0468
978 1 16.2398 23.4189 11.0303
979 1 16.3646 21.6944 12.7671
980 1 14.5846 23.4989 12.888
981 1 18.0902 21.7844 11.0021
982 1 19.9205 23.6219 10.9722
983 1 20.0399 21.7592 12.8478
984 1 18.1268 23.5953 12.7789
985 1 21.7384 21.8527 10.9682
986 1 23.507 23.4602 11.0471
987 1 23.6729 21.6524 12.8674
988 1 21.7576 23.5722 12.9292
989 1 25.3654 21.644 10.9535
990 1 27.1531 23.4633 11.0712
991 1 27.104 21.5749 12.9234
992 1 25.39 23.3644 12.8402
993 1 0.0931102 25.1827 11.064
994 1 1.75546 27.1148 10.8695
995 1 1.75568 25.2806 12.8975
996 1 28.866 26.9802 12.8959
997 1 3.55729 25.3286 10.9906
998 1 5.43086 27.0104 11.1337
999 1 5.49735 25.3268 12.8802
1000 1 3.48327 26.9203 12.8428
1001 1 7.36136 25.3311 11.1066
1002 1 9.25457 26.9191 11.1812
1003 1 9.17689 25.1775 12.8949
1004 1 7.33045 27.0455 12.9009
1005 1 11.0997 25.2696 11.1445
1006 1 12.6929 27.258 10.9497
1007 1 12.8881 25.281 12.9305
1008 1 11.0678 27.0127 12.8951
1009 1 14.3961 25.4043 10.909
1010 1 16.2833 27.056 10.8977
1011 1 16.3744 25.2956 12.7987
1012 1 14.5211 27.1735 12.7579
1013 1 18.0194 25.2099 10.9013
1014 1 19.9839 27.1812 11.0519
1015 1 19.8235 25.2984 12.7651
1016 1 17.9984 26.999 12.7974
1017 1 21.7794 25.337 10.8939
1018 1 23.5869 27.0554 10.9676
1019 1 23.5901 25.179 12.8147
1020 1 21.8476 27.0305 12.7449
1021 1 25.2572 25.1235 11.1133
1022 1 27.1521 26.9333 11.0441
1023 1 27.126 25.1591 12.8313
1024 1 25.323 27.0547 12.9127
1025 1 28.7962 0.0374853 14.6859
1026 1 1.66485 1.78491 14.6141
1027 1 1.84353 28.9498 16.3382
1028 1 28.8355 1.73686 16.4301
1029 1 3.62817 -0.0343918 14.6399
1030 1 5.48503 1.89492 14.6786
1031 1 5.48297 29.0015 16.4111
1032 1 3.65863 1.92104 16.4856
1033 1 7.35343 -0.128163 14.6516
1034 1 8.97629 1.72596 14.6331
1035 1 9.22232 0.0941523 16.5038
1036 1 7.3112 1.77601 16.5607
1037 1 10.7871 0.08903 14.6196
1038 1 12.7374 2.02132 14.6142
1039 1 12.6896 28.984 16.5462
1040 1 11.04 1.84724 16.4714
1041 1 14.5233 -0.0634435 14.7059
1042 1 16.2967 1.78959 14.533
1043 1 16.1492 -0.0714238 16.569
1044 1 14.5103 1.86314 16.4984
1045 1 18.1344 0.0321167 14.6096
1046 1 19.9672 1.92929 14.621
1047 1 19.8102 -0.0221471 16.4548
1048 1 18.0299 1.74309 16.5318
1049 1 21.6239 28.8554 14.6286
1050 1 23.5435 1.87602 14.5871
1051 1 23.4803 0.0627843 16.4487
1052 1 21.6136 1.86381 16.4533
1053 1 25.3799 -0.0709254 14.6952
1054 1 26.9341 1.74692 14.5719
1055 1 27.1646 28.8639 16.6444
1056 1 25.1799 1.87704 16.4746
1057 1 -0.103174 3.54284 14.7239
1058 1 1.84063 5.39189 14.5495
1059 1 1.81232 3.73974 16.3836
1060 1 28.9138 5.43593 16.4901
1061 1 3.57716 3.59829 14.6555
1062 1 5.41457 5.36267 14.6937
1063 1 5.43598 3.58768 16.6262
1064 1 3.64969 5.36421 16.5287
1065 1 7.38141 3.46781 14.6544
1066 1 8.99758 5.4528 14.8327
1067 1 9.0623 3.49572 16.5695
1068 1 7.12981 5.30677 16.5232
1069 1 10.8018 3.54547 14.8527
1070 1 12.6686 5.40704 14.6863
1071 1 12.8925 3.73279 16.4354
1072 1 10.958 5.33601 16.5014
1073 1 14.5551 3.61076 14.5616
1074 1 16.3648 5.45921 14.5951
1075 1 16.3242 3.51071 16.4715
1076 1 14.6436 5.30345 16.4975
1077 1 18.2355 3.65213 14.6328
1078 1 20.1313 5.56033 14.7351
1079 1 20.008 3.63723 16.5229
1080 1 18.1937 5.53442 16.3793
1081 1 21.6693 3.51343 14.5145
1082 1 23.4503 5.45265 14.5815
1083 1 23.3811 3.67316 16.4863
1084 1 21.5984 5.44077 16.7319
1085 1 25.2917 3.68456 14.7545
1086 1 27.1287 5.6111 14.6966
1087 1 26.9751 3.49893 16.4588
1088 1 25.2962 5.48539 16.4906
1089 1 -0.0965408 7.36977 14.6071
1090 1 1.79791 9.04794 14.5972
1091 1 1.82609 7.17709 16.1959
1092 1 28.8665 8.86683 16.415
1093 1 3.7202 7.10586 14.6466
1094 1 5.45605 9.08675 14.6556
1095 1 5.53389 7.25256 16.5859
1096 1 3.50523 8.84854 16.4223
1097 1 7.24205 7.11058 14.6672
1098 1 8.93495 8.88663 14.6745
1099 1 9.05884 7.28619 16.5026
1100 1 7.34932 9.1596 16.452
1101 1 10.7848 7.12339 14.683
1102 1 12.6826 8.97104 14.7958
1103 1 12.6462 7.22946 16.5226
1104 1 10.8998 8.94844 16.5994
1105 1 14.3982 7.09344 14.6711
1106 1 16.3713 9.03614 14.6721
1107 1 16.2558 7.24886 16.5337
1108 1 14.4544 8.96838 16.5309
1109 1 18.2089 7.24685 14.6404
1110 1 19.9045 8.99364 14.6259
1111 1 19.8925 7.26662 16.666
1112 1 18.2137 8.98398 16.4572
1113 1 21.7687 7.45006 14.6576
1114 1 23.6102 9.0268 14.762
1115 1 23.4305 7.20994 16.5035
1116 1 21.6266 9.05272 16.5451
1117 1 25.3006 7.30345 14.6405
1118 1 27.1633 9.03253 14.506
1119 1 27.0901 7.30237 16.4549
1120 1 25.3508 9.04537 16.6283
1121 1 0.0443783 10.861 14.6044
1122 1 1.928 12.7247 14.6444
1123 1 1.66796 10.7015 16.4978
1124 1 -0.0342996 12.6533 16.3695
1125 1 3.77309 10.8281 14.5781
1126 1 5.39888 12.676 14.6405
1127 1 5.41161 10.8685 16.5143
1128 1 3.6051 12.5245 16.5217
1129 1 7.17329 10.9017 14.6429
1130 1 9.09907 12.5166 14.7649
1131 1 9.13803 10.858 16.6536
1132 1 7.23982 12.6389 16.5226
1133 1 10.9428 10.7733 14.7159
1134 1 12.5795 12.6142 14.5211
1135 1 12.5965 11.0183 16.4347
1136 1 10.8614 12.7022 16.535
1137 1 14.4834 10.8149 14.6444
1138 1 16.0813 12.597 14.7264
1139 1 16.2941 10.7341 16.5136
1140 1 14.2057 12.7223 16.4195
1141 1 18.0813 10.8918 14.7836
1142 1 19.929 12.6037 14.7664
1143 1 19.7955 10.952 16.5174
1144 1 18.03 12.8538 16.5818
1145 1 21.8766 10.8174 14.6591
1146 1 23.5623 12.6845 14.6776
1147 1 23.5146 10.8331 16.5781
1148 1 21.7391 12.6293 16.4682
1149 1 25.2987 10.9075 14.6716
1150 1 27.0496 12.568 14.6493
1151 1 27.257 10.8096 16.4653
1152 1 25.3028 12.5754 16.6853
1153 1 0.124711 14.5751 14.6185
1154 1 1.87338 16.2943 14.7958
1155 1 1.84881 14.5402 16.4127
1156 1 -0.0692738 16.2955 16.5411
1157 1 3.67222 14.4646 14.6263
1158 1 5.55264 16.2424 14.6737
1159 1 5.36623 14.4465 16.4474
1160 1 3.60551 16.3651 16.5936
1161 1 7.26697 14.4009 14.5876
1162 1 9.08945 16.2245 14.8233
1163 1 8.94358 14.3983 16.4689
1164 1 7.34803 16.2205 16.5282
1165 1 10.848 14.3486 14.6391
1166 1 12.6092 16.2734 14.8118
1167 1 12.5165 14.4621 16.6135
1168 1 10.8401 16.2455 16.6176
1169 1 14.2945 14.4912 14.7499
1170 1 16.1177 16.2176 14.657
1171 1 16.0907 14.4502 16.5717
1172 1 14.4698 16.3025 16.7058
1173 1 17.9451 14.4581 14.7584
1174 1 19.6853 16.2475 14.6561
1175 1 19.9198 14.4738 16.6037
1176 1 18.0197 16.2776 16.6085
1177 1 21.5732 14.4955 14.7484
1178 1 23.569 16.1121 14.7452
1179 1 23.458 14.5148 16.5298
1180 1 21.6735 16.3488 16.4995
1181 1 25.3369 14.339 14.7551
1182 1 27.0468 16.3334 14.6415
1183 1 27.1612 14.5109 16.411
1184 1 25.377 16.1556 16.6309
1185 1 28.9896 18.1441 14.6446
1186 1 1.77611 19.9013 14.5608
1187 1 1.86265 18.0568 16.513
1188 1 28.9835 19.7827 16.4797
1189 1 3.68764 17.9708 14.7168
1190 1 5.55865 19.883 14.781
1191 1 5.54785 18.0421 16.5688
1192 1 3.54912 19.9178 16.5393
1193 1 7.31691 17.9698 14.7565
1194 1 8.99869 19.9047 14.7379
1195 1 9.18827 18.0019 16.6934
1196 1 7.37175 19.8629 16.6808
1197 1 10.7753 18.1713 14.7604
1198 1 12.7858 19.9463 14.6914
1199 1 12.6972 18.1058 16.6463
1200 1 10.9791 19.9722 16.668
1201 1 14.3885 18.0357 14.7644
1202 1 16.3996 19.9362 14.6914
1203 1 16.1528 18.0482 16.5605
1204 1 14.5473 19.9025 16.5331
1205 1 17.9031 17.8249 14.806
1206 1 19.7226 19.6828 14.577
1207 1 19.9261 18.139 16.579
1208 1 18.059 19.8621 16.3677
1209 1 21.5725 17.9468 14.6752
1210 1 23.3891 19.8117 14.5779
1211 1 23.4562 18.0769 16.4329
1212 1 21.7336 19.8907 16.4315
1213 1 25.308 17.9086 14.6734
1214 1 27.1999 19.7365 14.5906
1215 1 27.1027 18.1479 16.4784
1216 1 25.265 19.7995 16.383
1217 1 0.104489 21.7419 14.6504
1218 1 1.91 23.515 14.6727
1219 1 1.72853 21.627 16.4818
1220 1 28.9164 23.4412 16.4218
1221 1 3.59235 21.5586 14.6832
1222 1 5.46819 23.3351 14.7092
1223 1 5.58627 21.6049 16.6543
1224 1 3.7561 23.3649 16.5509
1225 1 7.35044 21.6966 14.8237
1226 1 9.11023 23.4593 14.772
1227 1 9.06214 21.7109 16.7339
1228 1 7.34505 23.5955 16.5735
1229 1 10.8693 21.6738 14.718
1230 1 12.8012 23.5044 14.7895
1231 1 12.6867 21.6886 16.6012
1232 1 10.8178 23.4842 16.6058
1233 1 14.6845 21.6479 14.6821
1234 1 16.2653 23.4587 14.7036
1235 1 16.2557 21.6379 16.6871
1236 1 14.4097 23.6032 16.5867
1237 1 18.1391 21.6334 14.6676
1238 1 19.9087 23.5959 14.6878
1239 1 19.786 21.6783 16.5074
1240 1 17.9938 23.5256 16.4813
1241 1 21.6633 21.5769 14.7375
1242 1 23.525 23.4093 14.65
1243 1 23.4538 21.5946 16.5978
1244 1 21.577 23.4437 16.6543
1245 1 25.4098 21.5971 14.7139
1246 1 27.0456 23.4289 14.5889
1247 1 27.2237 21.4968 16.3849
1248 1 25.2051 23.3722 16.4882
1249 1 -0.0203018 25.2248 14.6845
1250 1 1.80759 27.1153 14.8116
1251 1 1.8717 25.1721 16.5681
1252 1 29.0178 27.0414 16.5176
1253 1 3.65603 25.381 14.7812
1254 1 5.43514 27.0976 14.663
1255 1 5.51111 25.2463 16.439
1256 1 3.74364 27.1587 16.5641
1257 1 7.30748 25.226 14.7372
1258 1 9.28549 27.0942 14.6429
1259 1 9.20721 25.3643 16.5443
1260 1 7.41948 27.2996 16.606
1261 1 10.8745 25.2259 14.6647
1262 1 12.6061 27.1993 14.7328
1263 1 12.7146 25.371 16.5539
1264 1 10.9089 27.1823 16.6916
1265 1 14.4814 25.3995 14.6877
1266 1 16.3146 27.1149 14.5283
1267 1 16.2634 25.3094 16.4215
1268 1 14.42 27.113 16.5463
1269 1 18.14 25.3435 14.8573
1270 1 19.9406 26.9787 14.5172
1271 1 19.9867 25.3413 16.6411
1272 1 18.0906 27.1381 16.5223
1273 1 21.6904 25.1921 14.6565
1274 1 23.4007 27.1101 14.6588
1275 1 23.2362 25.2609 16.5439
1276 1 21.6977 27.1397 16.5547
1277 1 25.263 25.2619 14.7212
1278 1 27.1371 27.0883 14.6799
1279 1 27.0841 25.1678 16.5079
1280 1 25.1908 27.0194 16.6161
1281 1 29.0548 28.996 18.3493
1282 1 1.84197 1.85955 17.9374
1283 1 1.91427 0.0328831 20.0325
1284 1 29.0174 1.71203 19.9601
1285 1 3.62666 28.9476 18.3414
1286 1 5.34047 1.71467 18.3331
1287 1 5.42261 28.9846 20.1677
1288 1 3.75861 1.82832 20.1847
1289 1 7.34416 28.9567 18.3325
1290 1 9.23323 1.84576 18.3478
1291 1 9.06982 29.0204 20.1803
1292 1 7.25286 1.73047 20.2335
1293 1 10.9326 0.0373515 18.5277
1294 1 12.8028 1.73209 18.357
1295 1 12.6895 -0.0237011 20.2406
1296 1 11.048 1.79497 20.1593
1297 1 14.465 -0.0474193 18.453
1298 1 16.2771 1.70146 18.3905
1299 1 16.3743 28.8829 20.2528
1300 1 14.5909 1.75496 20.3486
1301 1 17.9911 -0.00155479 18.3004
1302 1 19.8479 1.732 18.3228
1303 1 19.9151 28.7918 20.1992
1304 1 18.1548 1.8255 20.2499
1305 1 21.7599 0.123643 18.3031
1306 1 23.4691 1.88554 18.3303
1307 1 23.5315 -0.00648407 20.1
1308 1 21.688 1.91899 20.0973
1309 1 25.2638 28.9537 18.3251
1310 1 26.9863 1.71454 18.2878
1311 1 27.1252 28.7664 20.0429
1312 1 25.276 1.91112 20.1338
1313 1 -0.00110733 3.62882 18.2055
1314 1 1.78713 5.50893 18.1222
1315 1 1.82994 3.55506 20.1235
1316 1 -0.124607 5.29391 20.0651
1317 1 3.51437 3.67263 18.4144
1318 1 5.39849 5.34614 18.3474
1319 1 5.45497 3.6763 20.0928
1320 1 3.6154 5.44412 20.2504
1321 1 7.28056 3.47485 18.3166
1322 1 9.04047 5.27182 18.2524
1323 1 9.2567 3.57399 20.2257
1324 1 7.29953 5.35895 19.9797
1325 1 11.0918 3.55272 18.3198
1326 1 12.9363 5.40243 18.3473
1327 1 12.7558 3.62578 20.2213
1328 1 10.8459 5.39098 20.0124
1329 1 14.5343 3.57656 18.3367
1330 1 16.4091 5.52813 18.38
1331 1 16.4395 3.62054 20.2172
1332 1 14.583 5.36683 20.1625
1333 1 17.9823 3.59716 18.2958
1334 1 19.8293 5.50107 18.3983
1335 1 19.7589 3.6947 20.1429
1336 1 18.0378 5.34957 20.3339
1337 1 21.6504 3.70387 18.4303
1338 1 23.4534 5.5623 18.4
1339 1 23.4004 3.62904 20.1991
1340 1 21.6806 5.48226 20.305
1341 1 25.2233 3.76442 18.4559
1342 1 27.1091 5.46232 18.1708
1343 1 27.0814 3.4774 20.0621
1344 1 25.403 5.44066 20.304
1345 1 -0.0101802 7.15823 18.334
1346 1 1.7616 8.94861 18.3989
1347 1 1.83223 7.03955 20.1749
1348 1 0.0101576 9.00416 20.1495
1349 1 3.69101 7.3261 18.4399
1350 1 5.45577 9.05026 18.242
1351 1 5.45768 7.20095 20.1518
1352 1 3.4623 8.87815 20.1862
1353 1 7.24867 7.25051 18.2719
1354 1 9.11611 9.07016 18.3189
1355 1 9.18144 7.20075 20.1062
1356 1 7.15586 8.89201 20.0664
1357 1 10.9663 7.18766 18.3073
1358 1 12.8007 8.91643 18.3895
1359 1 12.7816 7.19637 20.2441
1360 1 11.0598 8.98622 20.065
1361 1 14.6011 7.20465 18.3644
1362 1 16.3622 9.10446 18.3165
1363 1 16.2334 7.34359 20.2228
1364 1 14.4883 9.12406 20.0676
1365 1 18.0492 7.18653 18.4353
1366 1 19.7804 9.07629 18.4451
1367 1 19.778 7.17171 20.2446
1368 1 18.0296 9.01948 20.2535
1369 1 21.5197 7.22454 18.5292
1370 1 23.5099 8.86263 18.3524
1371 1 23.4468 7.19765 20.1855
1372 1 21.5753 9.0605 20.272
1373 1 25.2816 7.21736 18.4383
1374 1 27.2098 8.88423 18.3773
1375 1 27.261 7.21306 20.1508
1376 1 25.3179 9.12169 20.1929
1377 1 28.8544 10.7818 18.3418
1378 1 1.62868 12.6041 18.1071
1379 1 1.81758 10.7559 20.0845
1380 1 0.131989 12.605 20.307
1381 1 3.52487 10.8212 18.2801
1382 1 5.51391 12.5952 18.3212
1383 1 5.34127 10.7838 19.9757
1384 1 3.60298 12.6232 20.032
1385 1 7.25734 10.8381 18.3669
1386 1 9.13442 12.5731 18.4064
1387 1 9.05747 10.6906 20.2098
1388 1 7.25896 12.5917 20.2896
1389 1 10.9957 10.7388 18.2732
1390 1 12.6208 12.669 18.382
1391 1 12.6345 10.8294 20.1828
1392 1 10.8037 12.4665 20.1132
1393 1 14.4253 10.7908 18.1758
1394 1 16.1216 12.5928 18.2892
1395 1 16.2802 10.8807 20.2567
1396 1 14.4003 12.6156 20.1273
1397 1 18.1156 10.9384 18.3199
1398 1 19.909 12.5872 18.2649
1399 1 19.8115 10.9576 20.1886
1400 1 18.047 12.6851 20.1966
1401 1 21.6023 10.8113 18.298
1402 1 23.5032 12.5375 18.4078
1403 1 23.2786 10.7242 20.0624
1404 1 21.7502 12.7872 20.0895
1405 1 25.2871 10.7677 18.367
1406 1 27.1622 12.7258 18.4562
1407 1 27.1984 10.7746 20.2182
1408 1 25.3646 12.7426 20.1723
1409 1 0.0908975 14.4089 18.3333
1410 1 1.83904 16.2818 18.3714
1411 1 1.8107 14.4438 20.1113
1412 1 -0.00280235 16.2333 20.1668
1413 1 3.6536 14.3613 18.2642
1414 1 5.41939 16.1458 18.279
1415 1 5.53151 14.4414 20.1894
1416 1 3.76518 16.157 20.1367
1417 1 7.21603 14.4399 18.3666
1418 1 8.88726 16.2263 18.3937
1419 1 9.05647 14.4171 20.2044
1420 1 7.19552 16.2927 20.2088
1421 1 10.8035 14.5171 18.4117
1422 1 12.5834 16.227 18.2828
1423 1 12.6204 14.4971 20.1709
1424 1 10.8154 16.2193 20.2782
1425 1 14.3616 14.4913 18.4682
1426 1 16.3141 16.3507 18.4287
1427 1 16.191 14.5098 20.1644
1428 1 14.4293 16.3494 20.1151
1429 1 18.1491 14.4878 18.2838
1430 1 19.8857 16.3639 18.2822
1431 1 19.8314 14.4337 20.1204
1432 1 18.1156 16.461 20.1719
1433 1 21.8436 14.4107 18.3537
1434 1 23.4152 16.3561 18.2776
1435 1 23.5664 14.578 20.1203
1436 1 21.6246 16.3391 20.1438
1437 1 25.3177 14.4339 18.3718
1438 1 27.1305 16.1145 18.3375
1439 1 27.1686 14.5346 20.2209
1440 1 25.502 16.272 20.1761
1441 1 28.9654 18.0702 18.3055
1442 1 1.86448 19.846 18.401
1443 1 1.80759 18.0999 20.127
1444 1 29.0271 19.9486 20.2377
1445 1 3.72511 18.1012 18.2309
1446 1 5.48011 19.8584 18.408
1447 1 5.37984 18.0007 20.1375
1448 1 3.72161 19.914 20.1514
1449 1 7.18083 18.0587 18.3404
1450 1 9.24766 19.87 18.4245
1451 1 8.97391 17.9262 20.1427
1452 1 7.23251 19.8536 20.2726
1453 1 10.8797 18.146 18.4279
1454 1 12.7634 19.9765 18.5218
1455 1 12.5503 18.0129 20.2901
1456 1 10.868 19.9181 20.3573
1457 1 14.4204 18.021 18.317
1458 1 16.2319 19.8517 18.3481
1459 1 16.1664 18.1701 20.2047
1460 1 14.3819 19.916 20.392
1461 1 18.1516 18.1721 18.2351
1462 1 19.9744 20.0138 18.3962
1463 1 19.9261 18.2098 20.086
1464 1 18.0762 19.9616 20.2029
1465 1 21.7418 18.2355 18.3747
1466 1 23.5886 19.7894 18.3503
1467 1 23.5875 18.0905 20.1647
1468 1 21.7508 19.9741 20.2644
1469 1 25.3625 17.9475 18.3007
1470 1 27.1883 19.8679 18.3287
1471 1 27.2687 18.0541 20.1197
1472 1 25.4494 19.8251 20.1987
1473 1 28.9917 21.7459 18.3943
1474 1 1.92238 23.6173 18.2773
1475 1 1.93638 21.6684 20.3074
1476 1 28.9703 23.4109 20.1764
1477 1 3.63957 21.6878 18.2885
1478 1 5.48028 23.5778 18.4823
1479 1 5.38808 21.7494 20.1139
1480 1 3.50778 23.5643 20.1354
1481 1 7.28737 21.8012 18.4457
1482 1 8.99102 23.635 18.4559
1483 1 9.0509 21.6565 20.2155
1484 1 7.35472 23.5373 20.2097
1485 1 10.8939 21.7107 18.5042
1486 1 12.7057 23.5233 18.3359
1487 1 12.7327 21.7873 20.2953
1488 1 10.8365 23.5263 20.3978
1489 1 14.5399 21.6591 18.3895
1490 1 16.2901 23.431 18.408
1491 1 16.1629 21.705 20.2282
1492 1 14.4561 23.5521 20.1659
1493 1 18.1189 21.5148 18.3405
1494 1 19.8421 23.4084 18.3651
1495 1 20.0202 21.6853 20.2594
1496 1 18.1432 23.4331 20.2131
1497 1 21.6861 21.6543 18.4443
1498 1 23.3823 23.5179 18.4274
1499 1 23.7099 21.6843 20.1768
1500 1 21.7101 23.5905 20.1112
1501 1 25.4559 21.7522 18.3966
1502 1 27.1598 23.4645 18.2624
1503 1 27.1372 21.7016 20.102
1504 1 25.3321 23.5564 20.1251
1505 1 28.8982 25.4384 18.2706
1506 1 1.89233 27.1486 18.2701
1507 1 1.7576 25.435 20.0731
1508 1 28.9319 27.2101 19.9929
1509 1 3.81148 25.3358 18.1651
1510 1 5.49676 27.1612 18.3828
1511 1 5.50522 25.3786 20.1698
1512 1 3.75046 27.0398 20.2193
1513 1 7.2512 25.424 18.3108
1514 1 9.07825 27.1806 18.4464
1515 1 9.04457 25.3588 20.2129
1516 1 7.31303 27.1665 20.2633
1517 1 10.8583 25.2131 18.3046
1518 1 12.6817 27.1026 18.4199
1519 1 12.6227 25.3224 20.1286
1520 1 10.8072 27.1057 20.1953
1521 1 14.6691 25.2418 18.3159
1522 1 16.2214 27.059 18.399
1523 1 16.3158 25.2481 20.1639
1524 1 14.5217 27.062 20.1384
1525 1 18.0142 25.2983 18.3293
1526 1 19.8294 27.1003 18.2458
1527 1 19.828 25.2869 20.0309
1528 1 17.9613 27.0748 20.1993
1529 1 21.6644 25.303 18.3743
1530 1 23.444 27.1333 18.2452
1531 1 23.5045 25.3217 20.2645
1532 1 21.8145 27.1571 20.1861
1533 1 25.0244 25.28 18.21
1534 1 27.0329 26.9407 18.2086
1535 1 27.0217 25.3741 20.0716
1536 1 25.3106 27.1115 20.0791
1537 1 29.0028 0.00195213 21.91
1538 1 1.80042 1.87312 21.8033
1539 1 3.78558 29.0117 21.9241
1540 1 5.60904 1.73551 22.1611
1541 1 7.38766 29.0149 22.0361
1542 1 9.11372 1.70126 22.0548
1543 1 11.0372 28.8322 21.9522
1544 1 12.866 1.93552 21.9422
1545 1 14.545 28.8443 22.0862
1546 1 16.4451 1.74822 21.9667
1547 1 18.1923 -0.0238923 22.1014
1548 1 19.9626 1.745 21.8815
1549 1 21.6491 0.0102526 21.8883
1550 1 23.3993 1.87417 21.9245
1551 1 25.3793 28.9429 21.9611
1552 1 27.0839 1.81566 21.8464
1553 1 28.9232 3.49073 21.99
1554 1 1.56809 5.2967 21.8014
1555 1 3.68315 3.69009 21.999
1556 1 5.55601 5.33382 21.9473
1557 1 7.4989 3.52413 21.8626
1558 1 9.13163 5.36998 21.8093
1559 1 10.9886 3.50322 21.9891
1560 1 12.877 5.37833 22.0542
1561 1 14.5105 3.56603 21.974
1562 1 16.1717 5.32826 22.1474
1563 1 18.1424 3.63015 22.1116
1564 1 19.827 5.47469 21.9338
1565 1 21.5251 3.56441 22.0712
1566 1 23.3672 5.35337 22.0455
1567 1 25.2618 3.61988 21.8482
1568 1 27.2933 5.21773 22.0189
1569 1 0.0112554 7.12968 22.0168
1570 1 1.85449 9.01242 22.0337
1571 1 3.59644 7.10851 22.091
1572 1 5.26743 9.09167 21.7646
1573 1 7.30547 7.11956 21.8928
1574 1 9.03635 8.8955 21.9303
1575 1 10.991 7.16306 21.822
1576 1 12.7762 9.0463 22.0184
1577 1 14.6052 7.28314 22.0812
1578 1 16.3232 9.16587 22.1913
1579 1 17.9166 7.28849 22.0671
1580 1 19.7675 8.87336 22.0522
1581 1 21.6209 7.2163 22.0859
1582 1 23.4531 9.08826 21.9325
1583 1 25.4167 7.14286 22.0332
1584 1 27.1155 8.95289 21.892
1585 1 28.9527 10.7755 22.0263
1586 1 1.91644 12.5668 21.9934
1587 1 3.66978 10.8533 21.9129
1588 1 5.47168 12.7219 21.9472
1589 1 7.23803 10.7244 21.9088
1590 1 8.98522 12.5055 21.9485
1591 1 10.8256 10.8465 22.0106
1592 1 12.5391 12.7523 22.0181
1593 1 14.4327 10.8573 21.992
1594 1 16.2391 12.7301 21.9806
1595 1 18.2406 10.9575 22.1035
1596 1 20.0712 12.7796 21.9711
1597 1 21.572 10.9202 21.8268
1598 1 23.3978 12.6981 21.8685
1599 1 25.3702 10.861 21.7711
1600 1 27.2699 12.7062 21.9081
1601 1 0.132562 14.4804 21.8904
1602 1 1.85206 16.2689 21.7571
1603 1 3.60915 14.2878 22.0283
1604 1 5.40403 16.183 21.9024
1605 1 7.29505 14.5953 22.1231
1606 1 9.07602 16.2686 21.9321
1607 1 10.6495 14.3533 21.9862
1608 1 12.7522 16.2726 22.046
1609 1 14.3622 14.3933 21.9161
1610 1 16.2305 16.3342 22.0124
1611 1 18.1346 14.6578 22.027
1612 1 19.8773 16.3996 21.8142
1613 1 21.6874 14.6538 22.0858
1614 1 23.4967 16.5396 21.9288
1615 1 25.2992 14.5483 21.9454
1616 1 27.2148 16.3525 21.9928
1617 1 29.0315 17.9683 21.948
1618 1 1.75685 19.7673 22.0033
1619 1 3.69023 18.0366 21.877
1620 1 5.3661 19.8353 21.9206
1621 1 7.24107 18.1036 22.0375
1622 1 9.06169 19.7176 22.0257
1623 1 10.7245 18.0671 22.115
1624 1 12.6755 19.9991 22.0329
1625 1 14.3789 18.0732 22.0742
1626 1 16.1884 19.9565 22.0478
1627 1 18.0545 18.3498 21.9548
1628 1 20.0104 19.9761 22.1051
1629 1 21.649 18.1307 21.9299
1630 1 23.6456 19.9749 22.0261
1631 1 25.3158 18.1242 21.9691
1632 1 27.1547 19.7629 21.856
1633 1 28.7958 21.7018 21.9816
1634 1 1.82003 23.6274 21.9675
1635 1 3.60643 21.736 22.0409
1636 1 5.38415 23.4832 21.8189
1637 1 7.14793 21.6497 22.0525
1638 1 8.92149 23.6148 22.0306
1639 1 10.8528 21.8 22.1447
1640 1 12.6235 23.7254 22.0155
1641 1 14.4695 21.8437 22.0799
1642 1 16.3673 23.379 21.8418
1643 1 18.1473 21.6655 21.9945
1644 1 19.9642 23.3564 21.8789
1645 1 21.8878 21.6188 22.1374
1646 1 23.4957 23.4169 21.9612
1647 1 25.4529 21.7079 21.9612
1648 1 27.2432 23.7175 21.8236
1649 1 -0.0597163 25.4619 21.9148
1650 1 1.9302 27.2702 21.8191
1651 1 3.65094 25.4664 22.056
1652 1 5.48963 27.2924 21.925
1653 1 7.23278 25.2707 21.9436
1654 1 9.01104 27.0774 22.0973
1655 1 10.8565 25.303 22.1069
1656 1 12.7477 27.1455 21.9634
1657 1 14.5593 25.3714 22.0234
1658 1 16.2535 27.2114 22.1322
1659 1 18.2724 25.2761 21.9399
1660 1 19.9787 27.0653 22.1325
1661 1 21.824 25.2016 22.0832
1662 1 23.4715 27.1288 21.9466
1663 1 25.3281 25.3708 21.9679
1664 1 27.2513 27.1879 21.9256
