
     Program PWSCF v.7.5 starts on 25Jul2026 at 15:47:57 

     This program is part of the open-source Quantum ESPRESSO suite
     for quantum simulation of materials; please cite
         "P. Giannozzi et al., J. Phys.:Condens. Matter 21 395502 (2009);
         "P. Giannozzi et al., J. Phys.:Condens. Matter 29 465901 (2017);
         "P. Giannozzi et al., J. Chem. Phys. 152 154105 (2020);
          URL http://www.quantum-espresso.org", 
     in publications or presentations arising from this work. More details at
     http://www.quantum-espresso.org/quote

     Parallel version (MPI & OpenMP), running on       8 processor cores
     Number of MPI processes:                 8
     Threads/MPI process:                     1

     MPI processes distributed on     1 nodes
     12665 MiB available memory on the printing compute node when the environment starts

     Reading input from feo_hp_scf.in

     Current dimensions of program PWSCF are:
     Max number of different atomic species (ntypx) = 10
     Max number of k-points (npk) =  40000
     Max angular momentum in pseudopotentials (lmaxx) =  4
     file Fe.pbe-spn-kjpaw_psl.1.0.0.UPF: wavefunction(s)  3P 3D renormalized
     file Fe.pbe-spn-kjpaw_psl.1.0.0.UPF: wavefunction(s)  3P 3D renormalized
     file O.pbe-n-kjpaw_psl.1.0.0.UPF: wavefunction(s)  2S 2P renormalized
     Message from routine volume:
     axis vectors are left-handed
     Message from routine setup:
     using ibrav=0 with symmetry is DISCOURAGED, use correct ibrav instead

     K-points division:     npool     =       4
     R & G space division:  proc/nbgrp/npool/nimage =       2
     Subspace diagonalization in iterative solution of the eigenvalue problem:
     a serial algorithm will be used


     Parallelization info
     --------------------
     sticks:   dense  smooth     PW     G-vecs:    dense   smooth      PW
     Min        1550     618    192                42771    10819    1916
     Max        1551     619    193                42772    10820    1917
     Sum        3101    1237    385                85543    21639    3833

     Using Slab Decomposition



     bravais-lattice index     =            0
     lattice parameter (alat)  =       8.1800  a.u.
     unit-cell volume          =     273.6717 (a.u.)^3
     number of atoms/cell      =            4
     number of atomic types    =            3
     number of electrons       =        44.00
     number of Kohn-Sham states=           26
     kinetic-energy cutoff     =      70.0000  Ry
     charge density cutoff     =     700.0000  Ry
     scf convergence threshold =      1.0E-12
     mixing beta               =       0.2000
     number of iterations used =            8  local-TF  mixing
     Exchange-correlation= SLA  PW   PBX  PBC
                           (   1   4   3   4   0   0   0)
     Hubbard projectors: ortho-atomic
     Hubbard parameters of DFT+U (Dudarev formulation) in eV:
     U(Fe1-3d) =  0.0000
     U(Fe2-3d) =  0.0000

     Internal variables: lda_plus_u =T, lda_plus_u_kind = 0

     Internal variables: orbital_resolved =F, hub_pot_fix =F, apply_U = F

     celldm(1)=   8.180000  celldm(2)=   0.000000  celldm(3)=   0.000000
     celldm(4)=   0.000000  celldm(5)=   0.000000  celldm(6)=   0.000000

     crystal axes: (cart. coord. in units of alat)
               a(1) = (   0.500000   0.500000   1.000000 )  
               a(2) = (   0.500000   1.000000   0.500000 )  
               a(3) = (   1.000000   0.500000   0.500000 )  

     reciprocal axes: (cart. coord. in units 2 pi/alat)
               b(1) = ( -0.500000 -0.500000  1.500000 )  
               b(2) = ( -0.500000  1.500000 -0.500000 )  
               b(3) = (  1.500000 -0.500000 -0.500000 )  


     PseudoPot. # 1 for Fe read from file:
     ./pseudo/Fe.pbe-spn-kjpaw_psl.1.0.0.UPF
     MD5 check sum: fc81f059e5c5069939230b1155715ae8
     Pseudo is Projector augmented-wave + core cor, Zval = 16.0
     Generated using &quot;atomic&quot; code by A. Dal Corso  v.6.3
     Shape of augmentation charge: PSQ
     Using radial grid of 1191 points,  6 beta functions with: 
                l(1) =   0
                l(2) =   0
                l(3) =   1
                l(4) =   1
                l(5) =   2
                l(6) =   2
     Q(r) pseudized with 0 coefficients 


     PseudoPot. # 2 for Fe read from file:
     ./pseudo/Fe.pbe-spn-kjpaw_psl.1.0.0.UPF
     MD5 check sum: fc81f059e5c5069939230b1155715ae8
     Pseudo is Projector augmented-wave + core cor, Zval = 16.0
     Generated using &quot;atomic&quot; code by A. Dal Corso  v.6.3
     Shape of augmentation charge: PSQ
     Using radial grid of 1191 points,  6 beta functions with: 
                l(1) =   0
                l(2) =   0
                l(3) =   1
                l(4) =   1
                l(5) =   2
                l(6) =   2
     Q(r) pseudized with 0 coefficients 


     PseudoPot. # 3 for O  read from file:
     ./pseudo/O.pbe-n-kjpaw_psl.1.0.0.UPF
     MD5 check sum: e99d9cef9b487d1ca56f5b95ecd0fd7a
     Pseudo is Projector augmented-wave + core cor, Zval =  6.0
     Generated using &quot;atomic&quot; code by A. Dal Corso  v.6.3
     Shape of augmentation charge: PSQ
     Using radial grid of 1095 points,  4 beta functions with: 
                l(1) =   0
                l(2) =   0
                l(3) =   1
                l(4) =   1
     Q(r) pseudized with 0 coefficients 


     atomic species   valence    mass     pseudopotential
     Fe1              16.00    55.84500     Fe( 1.00)
     Fe2              16.00    55.84500     Fe( 1.00)
     O                 6.00    15.99900     O ( 1.00)

     Starting magnetic structure 
     atomic species   magnetization
     Fe1             0.600
     Fe2            -0.600
     O               0.000

     12 Sym. Ops., with inversion, found


                                    s                        frac. trans.

      isym =  1     identity                                     

 cryst.   s( 1) = (     1          0          0      )
                  (     0          1          0      )
                  (     0          0          1      )

 cart.    s( 1) = (  1.0000000  0.0000000  0.0000000 )
                  (  0.0000000  1.0000000  0.0000000 )
                  (  0.0000000  0.0000000  1.0000000 )


      isym =  2     180 deg rotation - cart. axis [1,-1,0]       

 cryst.   s( 2) = (    -1          0          0      )
                  (     0          0         -1      )
                  (     0         -1          0      )

 cart.    s( 2) = (  0.0000000 -1.0000000  0.0000000 )
                  ( -1.0000000  0.0000000  0.0000000 )
                  (  0.0000000  0.0000000 -1.0000000 )


      isym =  3     180 deg rotation - cart. axis [-1,0,1]       

 cryst.   s( 3) = (     0          0         -1      )
                  (     0         -1          0      )
                  (    -1          0          0      )

 cart.    s( 3) = (  0.0000000  0.0000000 -1.0000000 )
                  (  0.0000000 -1.0000000  0.0000000 )
                  ( -1.0000000  0.0000000  0.0000000 )


      isym =  4     180 deg rotation - cart. axis [0,1,-1]       

 cryst.   s( 4) = (     0         -1          0      )
                  (    -1          0          0      )
                  (     0          0         -1      )

 cart.    s( 4) = ( -1.0000000  0.0000000  0.0000000 )
                  (  0.0000000  0.0000000 -1.0000000 )
                  (  0.0000000 -1.0000000  0.0000000 )


      isym =  5     120 deg rotation - cart. axis [-1,-1,-1]     

 cryst.   s( 5) = (     0          1          0      )
                  (     0          0          1      )
                  (     1          0          0      )

 cart.    s( 5) = (  0.0000000  1.0000000  0.0000000 )
                  (  0.0000000  0.0000000  1.0000000 )
                  (  1.0000000  0.0000000  0.0000000 )


      isym =  6     120 deg rotation - cart. axis [1,1,1]        

 cryst.   s( 6) = (     0          0          1      )
                  (     1          0          0      )
                  (     0          1          0      )

 cart.    s( 6) = (  0.0000000  0.0000000  1.0000000 )
                  (  1.0000000  0.0000000  0.0000000 )
                  (  0.0000000  1.0000000  0.0000000 )


      isym =  7     inversion                                    

 cryst.   s( 7) = (    -1          0          0      )
                  (     0         -1          0      )
                  (     0          0         -1      )

 cart.    s( 7) = ( -1.0000000  0.0000000  0.0000000 )
                  (  0.0000000 -1.0000000  0.0000000 )
                  (  0.0000000  0.0000000 -1.0000000 )


      isym =  8     inv. 180 deg rotation - cart. axis [1,-1,0]  

 cryst.   s( 8) = (     1          0          0      )
                  (     0          0          1      )
                  (     0          1          0      )

 cart.    s( 8) = (  0.0000000  1.0000000  0.0000000 )
                  (  1.0000000  0.0000000  0.0000000 )
                  (  0.0000000  0.0000000  1.0000000 )


      isym =  9     inv. 180 deg rotation - cart. axis [-1,0,1]  

 cryst.   s( 9) = (     0          0          1      )
                  (     0          1          0      )
                  (     1          0          0      )

 cart.    s( 9) = (  0.0000000  0.0000000  1.0000000 )
                  (  0.0000000  1.0000000  0.0000000 )
                  (  1.0000000  0.0000000  0.0000000 )


      isym = 10     inv. 180 deg rotation - cart. axis [0,1,-1]  

 cryst.   s(10) = (     0          1          0      )
                  (     1          0          0      )
                  (     0          0          1      )

 cart.    s(10) = (  1.0000000  0.0000000  0.0000000 )
                  (  0.0000000  0.0000000  1.0000000 )
                  (  0.0000000  1.0000000  0.0000000 )


      isym = 11     inv. 120 deg rotation - cart. axis [-1,-1,-1]

 cryst.   s(11) = (     0         -1          0      )
                  (     0          0         -1      )
                  (    -1          0          0      )

 cart.    s(11) = (  0.0000000 -1.0000000  0.0000000 )
                  (  0.0000000  0.0000000 -1.0000000 )
                  ( -1.0000000  0.0000000  0.0000000 )


      isym = 12     inv. 120 deg rotation - cart. axis [1,1,1]   

 cryst.   s(12) = (     0          0         -1      )
                  (    -1          0          0      )
                  (     0         -1          0      )

 cart.    s(12) = (  0.0000000  0.0000000 -1.0000000 )
                  ( -1.0000000  0.0000000  0.0000000 )
                  (  0.0000000 -1.0000000  0.0000000 )


   Cartesian axes

     site n.     atom                  positions (alat units)
         1        Fe1    tau(   1) = (   0.0000000   0.0000000   0.0000000  )
         2        Fe2    tau(   2) = (   1.0000000   1.0000000   1.0000000  )
         3        O      tau(   3) = (   0.5000000   0.5000000   0.5000000  )
         4        O      tau(   4) = (   1.5000000   1.5000000   1.5000000  )

   Crystallographic axes

     site n.     atom                  positions (cryst. coord.)
         1        Fe1    tau(   1) = (  0.0000000  0.0000000  0.0000000  )
         2        Fe2    tau(   2) = (  0.5000000  0.5000000  0.5000000  )
         3        O      tau(   3) = (  0.2500000  0.2500000  0.2500000  )
         4        O      tau(   4) = (  0.7500000  0.7500000  0.7500000  )

     number of k points=    32  Marzari-Vanderbilt smearing, width (Ry)=  0.0100
                       cart. coord. in units 2pi/alat
        k(    1) = (   0.0000000   0.0000000   0.0000000), wk =   0.0046296
        k(    2) = (   0.2500000  -0.0833333  -0.0833333), wk =   0.0277778
        k(    3) = (   0.5000000  -0.1666667  -0.1666667), wk =   0.0277778
        k(    4) = (  -0.7500000   0.2500000   0.2500000), wk =   0.0138889
        k(    5) = (   0.1666667   0.1666667  -0.1666667), wk =   0.0277778
        k(    6) = (   0.4166667   0.0833333  -0.2500000), wk =   0.0555556
        k(    7) = (  -0.8333333   0.5000000   0.1666667), wk =   0.0555556
        k(    8) = (  -0.5833333   0.4166667   0.0833333), wk =   0.0555556
        k(    9) = (  -0.3333333   0.3333333  -0.0000000), wk =   0.0277778
        k(   10) = (   0.3333333   0.3333333  -0.3333333), wk =   0.0277778
        k(   11) = (  -0.9166667   0.7500000   0.0833333), wk =   0.0555556
        k(   12) = (  -0.6666667   0.6666667   0.0000000), wk =   0.0277778
        k(   13) = (  -0.5000000  -0.5000000   0.5000000), wk =   0.0138889
        k(   14) = (   0.0833333   0.0833333   0.0833333), wk =   0.0092593
        k(   15) = (   0.3333333   0.0000000   0.0000000), wk =   0.0277778
        k(   16) = (  -0.9166667   0.4166667   0.4166667), wk =   0.0277778
        k(   17) = (  -0.6666667   0.3333333   0.3333333), wk =   0.0277778
        k(   18) = (  -0.4166667   0.2500000   0.2500000), wk =   0.0277778
        k(   19) = (   0.2500000   0.2500000  -0.0833333), wk =   0.0277778
        k(   20) = (  -1.0000000   0.6666667   0.3333333), wk =   0.0555556
        k(   21) = (  -0.7500000   0.5833333   0.2500000), wk =   0.0555556
        k(   22) = (  -0.5000000   0.5000000   0.1666667), wk =   0.0555556
        k(   23) = (  -0.5833333  -0.5833333   0.7500000), wk =   0.0277778
        k(   24) = (  -0.3333333  -0.6666667   0.6666667), wk =   0.0555556
        k(   25) = (  -0.0833333  -0.7500000   0.5833333), wk =   0.0277778
        k(   26) = (  -0.4166667  -0.4166667   0.5833333), wk =   0.0277778
        k(   27) = (   0.1666667   0.1666667   0.1666667), wk =   0.0092593
        k(   28) = (  -1.0833333   0.5833333   0.5833333), wk =   0.0277778
        k(   29) = (  -0.8333333   0.5000000   0.5000000), wk =   0.0277778
        k(   30) = (  -0.6666667  -0.6666667   1.0000000), wk =   0.0277778
        k(   31) = (  -0.4166667  -0.7500000   0.9166667), wk =   0.0277778
        k(   32) = (  -0.2500000  -0.2500000  -0.2500000), wk =   0.0046296

                       cryst. coord.
        k(    1) = (   0.0000000   0.0000000   0.0000000), wk =   0.0046296
        k(    2) = (   0.0000000   0.0000000   0.1666667), wk =   0.0277778
        k(    3) = (   0.0000000   0.0000000   0.3333333), wk =   0.0277778
        k(    4) = (   0.0000000   0.0000000  -0.5000000), wk =   0.0138889
        k(    5) = (   0.0000000   0.1666667   0.1666667), wk =   0.0277778
        k(    6) = (   0.0000000   0.1666667   0.3333333), wk =   0.0555556
        k(    7) = (   0.0000000   0.1666667  -0.5000000), wk =   0.0555556
        k(    8) = (   0.0000000   0.1666667  -0.3333333), wk =   0.0555556
        k(    9) = (   0.0000000   0.1666667  -0.1666667), wk =   0.0277778
        k(   10) = (   0.0000000   0.3333333   0.3333333), wk =   0.0277778
        k(   11) = (   0.0000000   0.3333333  -0.5000000), wk =   0.0555556
        k(   12) = (   0.0000000   0.3333333  -0.3333333), wk =   0.0277778
        k(   13) = (   0.0000000  -0.5000000  -0.5000000), wk =   0.0138889
        k(   14) = (   0.1666667   0.1666667   0.1666667), wk =   0.0092593
        k(   15) = (   0.1666667   0.1666667   0.3333333), wk =   0.0277778
        k(   16) = (   0.1666667   0.1666667  -0.5000000), wk =   0.0277778
        k(   17) = (   0.1666667   0.1666667  -0.3333333), wk =   0.0277778
        k(   18) = (   0.1666667   0.1666667  -0.1666667), wk =   0.0277778
        k(   19) = (   0.1666667   0.3333333   0.3333333), wk =   0.0277778
        k(   20) = (   0.1666667   0.3333333  -0.5000000), wk =   0.0555556
        k(   21) = (   0.1666667   0.3333333  -0.3333333), wk =   0.0555556
        k(   22) = (   0.1666667   0.3333333  -0.1666667), wk =   0.0555556
        k(   23) = (   0.1666667  -0.5000000  -0.5000000), wk =   0.0277778
        k(   24) = (   0.1666667  -0.5000000  -0.3333333), wk =   0.0555556
        k(   25) = (   0.1666667  -0.5000000  -0.1666667), wk =   0.0277778
        k(   26) = (   0.1666667  -0.3333333  -0.3333333), wk =   0.0277778
        k(   27) = (   0.3333333   0.3333333   0.3333333), wk =   0.0092593
        k(   28) = (   0.3333333   0.3333333  -0.5000000), wk =   0.0277778
        k(   29) = (   0.3333333   0.3333333  -0.3333333), wk =   0.0277778
        k(   30) = (   0.3333333  -0.5000000  -0.5000000), wk =   0.0277778
        k(   31) = (   0.3333333  -0.5000000  -0.3333333), wk =   0.0277778
        k(   32) = (  -0.5000000  -0.5000000  -0.5000000), wk =   0.0046296

     Dense  grid:    85543 G-vectors     FFT dimensions: (  90,  90,  90)

     Smooth grid:    21639 G-vectors     FFT dimensions: (  54,  54,  54)

     Dynamical RAM for                 wfc:       0.54 MB

     Dynamical RAM for     wfc (w. buffer):       9.13 MB

     Dynamical RAM for             U proj.:       0.21 MB

     Dynamical RAM for  U proj. (w. buff.):       3.51 MB

     Dynamical RAM for           str. fact:       1.96 MB

     Dynamical RAM for           local pot:       0.00 MB

     Dynamical RAM for          nlocal pot:       1.07 MB

     Dynamical RAM for                qrad:       6.37 MB

     Dynamical RAM for          rho,v,vnew:      20.60 MB

     Dynamical RAM for               rhoin:       6.87 MB

     Dynamical RAM for            rho*nmix:      20.88 MB

     Dynamical RAM for           G-vectors:       2.53 MB

     Dynamical RAM for          h,s,v(r/c):       0.12 MB

     Dynamical RAM for          <psi|beta>:       0.02 MB

     Dynamical RAM for                 psi:       1.07 MB

     Dynamical RAM for                hpsi:       1.07 MB

     Dynamical RAM for                spsi:       1.07 MB

     Dynamical RAM for      wfcinit/wfcrot:       1.09 MB

     Dynamical RAM for           addusdens:      31.82 MB

     Dynamical RAM for          addusforce:      31.67 MB

     Dynamical RAM for         addusstress:      33.53 MB

     Estimated static dynamical RAM per process >      71.33 MB

     Estimated max dynamical RAM per process >     125.74 MB

     Estimated total dynamical RAM >     880.63 MB
     Generating pointlists ...
     new r_m :   0.2063 (alat units)  1.6871 (a.u.) for type    1
     new r_m :   0.2063 (alat units)  1.6871 (a.u.) for type    2
     new r_m :   0.2063 (alat units)  1.6871 (a.u.) for type    3

     Initial potential from superposition of free atoms

     starting charge      43.9991, renormalised to      44.0000

     HUBBARD ENERGY =    0.0000  (Ry)

     STARTING HUBBARD OCCUPATIONS:

     =================== HUBBARD OCCUPATIONS ===================
     ------------------------ ATOM    1 ------------------------
     Tr[ns(  1)] (up, down, total) =   5.00000  1.00000  6.00000
     Atomic magnetic moment for atom   1 =   4.00000
     SPIN  1
     eigenvalues:
       1.000  1.000  1.000  1.000  1.000
     eigenvectors (columns):
       1.000  0.000  0.000  0.000  0.000
       0.000  1.000  0.000  0.000  0.000
       0.000  0.000  1.000  0.000  0.000
       0.000  0.000  0.000  1.000  0.000
       0.000  0.000  0.000  0.000  1.000
     occupation matrix ns (before diag.):
       1.000  0.000  0.000  0.000  0.000
       0.000  1.000  0.000  0.000  0.000
       0.000  0.000  1.000  0.000  0.000
       0.000  0.000  0.000  1.000  0.000
       0.000  0.000  0.000  0.000  1.000
     SPIN  2
     eigenvalues:
       0.200  0.200  0.200  0.200  0.200
     eigenvectors (columns):
       1.000  0.000  0.000  0.000  0.000
       0.000  1.000  0.000  0.000  0.000
       0.000  0.000  1.000  0.000  0.000
       0.000  0.000  0.000  1.000  0.000
       0.000  0.000  0.000  0.000  1.000
     occupation matrix ns (before diag.):
       0.200  0.000  0.000  0.000  0.000
       0.000  0.200  0.000  0.000  0.000
       0.000  0.000  0.200  0.000  0.000
       0.000  0.000  0.000  0.200  0.000
       0.000  0.000  0.000  0.000  0.200
     ------------------------ ATOM    2 ------------------------
     Tr[ns(  2)] (up, down, total) =   1.00000  5.00000  6.00000
     Atomic magnetic moment for atom   2 =  -4.00000
     SPIN  1
     eigenvalues:
       0.200  0.200  0.200  0.200  0.200
     eigenvectors (columns):
       1.000  0.000  0.000  0.000  0.000
       0.000  1.000  0.000  0.000  0.000
       0.000  0.000  1.000  0.000  0.000
       0.000  0.000  0.000  1.000  0.000
       0.000  0.000  0.000  0.000  1.000
     occupation matrix ns (before diag.):
       0.200  0.000  0.000  0.000  0.000
       0.000  0.200  0.000  0.000  0.000
       0.000  0.000  0.200  0.000  0.000
       0.000  0.000  0.000  0.200  0.000
       0.000  0.000  0.000  0.000  0.200
     SPIN  2
     eigenvalues:
       1.000  1.000  1.000  1.000  1.000
     eigenvectors (columns):
       1.000  0.000  0.000  0.000  0.000
       0.000  1.000  0.000  0.000  0.000
       0.000  0.000  1.000  0.000  0.000
       0.000  0.000  0.000  1.000  0.000
       0.000  0.000  0.000  0.000  1.000
     occupation matrix ns (before diag.):
       1.000  0.000  0.000  0.000  0.000
       0.000  1.000  0.000  0.000  0.000
       0.000  0.000  1.000  0.000  0.000
       0.000  0.000  0.000  1.000  0.000
       0.000  0.000  0.000  0.000  1.000

     Number of occupied Hubbard levels =   12.0000

     Atomic wfc used for Hubbard projectors are orthogonalized

     Starting wfcs are   28 randomized atomic wfcs
     Checking if some PAW data can be deallocated... 
       PAW data deallocated on    6 nodes for type:  1
       PAW data deallocated on    6 nodes for type:  2
       PAW data deallocated on    4 nodes for type:  3

     total cpu time spent up to now is        5.0 secs

     per-process dynamical memory:   103.5 Mb

     Self-consistent Calculation

     iteration #  1     ecut=    70.00 Ry     beta= 0.20
     Davidson diagonalization with overlap

---- Real-time Memory Report at c_bands before calling an iterative solver
           174 MiB given to the printing process from OS
           101 MiB allocation reported by mallinfo(arena+hblkhd)
         11516 MiB available memory on the node where the printing process lives
------------------
     ethr =  1.00E-02,  avg # of iterations =  2.0

     =================== HUBBARD OCCUPATIONS ===================
     ------------------------ ATOM    1 ------------------------
     Tr[ns(  1)] (up, down, total) =   4.98830  0.86092  5.84922
     Atomic magnetic moment for atom   1 =   4.12738
     SPIN  1
     eigenvalues:
       0.996  0.996  0.998  0.998  0.999
     eigenvectors (columns):
       0.631  0.776 -0.008  0.002  0.000
      -0.002  0.006  0.560  0.594 -0.577
       0.007 -0.001  0.234 -0.782 -0.577
      -0.776  0.631 -0.002 -0.008 -0.000
       0.004  0.005  0.794 -0.188  0.577
     occupation matrix ns (before diag.):
       0.996 -0.000 -0.000  0.000 -0.000
      -0.000  0.998  0.000 -0.000 -0.000
      -0.000  0.000  0.998  0.000 -0.000
       0.000 -0.000  0.000  0.996 -0.000
      -0.000 -0.000 -0.000 -0.000  0.998
     SPIN  2
     eigenvalues:
       0.084  0.084  0.206  0.244  0.244
     eigenvectors (columns):
       0.707 -0.701 -0.000  0.093 -0.004
      -0.019 -0.074  0.577 -0.439 -0.684
       0.073  0.020  0.577 -0.373  0.723
      -0.701 -0.707  0.000  0.004  0.093
       0.054 -0.054 -0.577 -0.812  0.039
     occupation matrix ns (before diag.):
       0.085 -0.006 -0.006  0.000 -0.012
      -0.006  0.230 -0.012 -0.011  0.012
      -0.006 -0.012  0.230  0.011  0.012
       0.000 -0.011  0.011  0.085 -0.000
      -0.012  0.012  0.012 -0.000  0.230
     ------------------------ ATOM    2 ------------------------
     Tr[ns(  2)] (up, down, total) =   0.86727  4.98814  5.85541
     Atomic magnetic moment for atom   2 =  -4.12087
     SPIN  1
     eigenvalues:
       0.084  0.084  0.207  0.247  0.247
     eigenvectors (columns):
       0.237 -0.968 -0.000  0.087  0.005
      -0.051 -0.049  0.577 -0.444  0.682
       0.068 -0.020  0.577 -0.369 -0.725
      -0.968 -0.237  0.000  0.005 -0.087
       0.017 -0.069 -0.577 -0.812 -0.043
     occupation matrix ns (before diag.):
       0.085 -0.006 -0.006  0.000 -0.012
      -0.006  0.233 -0.013 -0.010  0.013
      -0.006 -0.013  0.233  0.010  0.013
       0.000 -0.010  0.010  0.085 -0.000
      -0.012  0.013  0.013 -0.000  0.233
     SPIN  2
     eigenvalues:
       0.996  0.996  0.998  0.998  0.999
     eigenvectors (columns):
       0.510  0.860 -0.017  0.005  0.000
      -0.007  0.013  0.586  0.569 -0.577
       0.015 -0.000  0.200 -0.792 -0.577
      -0.860  0.510 -0.005 -0.017 -0.000
       0.007  0.013  0.785 -0.223  0.577
     occupation matrix ns (before diag.):
       0.996 -0.000 -0.000  0.000 -0.000
      -0.000  0.998  0.000 -0.000 -0.000
      -0.000  0.000  0.998  0.000 -0.000
       0.000 -0.000  0.000  0.996 -0.000
      -0.000 -0.000 -0.000 -0.000  0.998

     Number of occupied Hubbard levels =   11.7046

     HUBBARD ENERGY =    0.0000  (Ry)

     total cpu time spent up to now is       10.9 secs

     total energy              =    -740.94630978 Ry
     estimated scf accuracy    <       2.75996124 Ry

     total magnetization       =     0.01 Bohr mag/cell
     absolute magnetization    =     8.65 Bohr mag/cell

     iteration #  2     ecut=    70.00 Ry     beta= 0.20
     Davidson diagonalization with overlap

---- Real-time Memory Report at c_bands before calling an iterative solver
           202 MiB given to the printing process from OS
           123 MiB allocation reported by mallinfo(arena+hblkhd)
         11371 MiB available memory on the node where the printing process lives
------------------
     ethr =  6.27E-03,  avg # of iterations =  1.4

     =================== HUBBARD OCCUPATIONS ===================
     ------------------------ ATOM    1 ------------------------
     Tr[ns(  1)] (up, down, total) =   4.98684  1.03969  6.02654
     Atomic magnetic moment for atom   1 =   3.94715
     SPIN  1
     eigenvalues:
       0.995  0.995  0.999  0.999  0.999
     eigenvectors (columns):
       0.658  0.752 -0.028  0.007  0.000
      -0.008  0.022  0.559  0.595 -0.577
       0.023 -0.005  0.236 -0.781 -0.577
      -0.752  0.658 -0.007 -0.028 -0.000
       0.015  0.018  0.795 -0.186  0.577
     occupation matrix ns (before diag.):
       0.995 -0.000 -0.000  0.000 -0.000
      -0.000  0.999  0.000 -0.000 -0.000
      -0.000  0.000  0.999  0.000 -0.000
       0.000 -0.000  0.000  0.995 -0.000
      -0.000 -0.000 -0.000 -0.000  0.999
     SPIN  2
     eigenvalues:
       0.089  0.089  0.258  0.302  0.302
     eigenvectors (columns):
       0.647 -0.760 -0.000  0.063  0.006
      -0.017 -0.049  0.577 -0.476  0.661
       0.051  0.009  0.577 -0.335 -0.743
      -0.760 -0.647  0.000  0.006 -0.063
       0.034 -0.040 -0.577 -0.811 -0.082
     occupation matrix ns (before diag.):
       0.090 -0.006 -0.006  0.000 -0.011
      -0.006  0.287 -0.014 -0.010  0.014
      -0.006 -0.014  0.287  0.010  0.014
       0.000 -0.010  0.010  0.090 -0.000
      -0.011  0.014  0.014 -0.000  0.287
     ------------------------ ATOM    2 ------------------------
     Tr[ns(  2)] (up, down, total) =   1.04858  4.98679  6.03537
     Atomic magnetic moment for atom   2 =  -3.93821
     SPIN  1
     eigenvalues:
       0.089  0.089  0.259  0.306  0.306
     eigenvectors (columns):
       0.332 -0.941 -0.000  0.062  0.005
      -0.033 -0.038  0.577 -0.463  0.670
       0.050 -0.009  0.577 -0.349 -0.736
      -0.941 -0.332  0.000  0.005 -0.062
       0.017 -0.048 -0.577 -0.812 -0.066
     occupation matrix ns (before diag.):
       0.090 -0.005 -0.005  0.000 -0.011
      -0.005  0.290 -0.015 -0.010  0.015
      -0.005 -0.015  0.290  0.010  0.015
       0.000 -0.010  0.010  0.090 -0.000
      -0.011  0.015  0.015 -0.000  0.290
     SPIN  2
     eigenvalues:
       0.995  0.995  0.999  0.999  0.999
     eigenvectors (columns):
       0.638  0.769 -0.031  0.007  0.000
      -0.009  0.024  0.548  0.605 -0.577
       0.025 -0.004  0.250 -0.777 -0.577
      -0.769  0.638 -0.007 -0.031 -0.000
       0.017  0.020  0.798 -0.172  0.577
     occupation matrix ns (before diag.):
       0.995 -0.000 -0.000  0.000 -0.000
      -0.000  0.999  0.000 -0.000 -0.000
      -0.000  0.000  0.999  0.000 -0.000
       0.000 -0.000  0.000  0.995 -0.000
      -0.000 -0.000 -0.000 -0.000  0.999

     Number of occupied Hubbard levels =   12.0619

     negative rho (up, down):  1.971E-04 1.969E-04

     HUBBARD ENERGY =    0.0000  (Ry)

     total cpu time spent up to now is       16.3 secs

     total energy              =    -741.45633428 Ry
     estimated scf accuracy    <       1.52391535 Ry

     total magnetization       =     0.01 Bohr mag/cell
     absolute magnetization    =     8.23 Bohr mag/cell

     iteration #  3     ecut=    70.00 Ry     beta= 0.20
     Davidson diagonalization with overlap

---- Real-time Memory Report at c_bands before calling an iterative solver
           203 MiB given to the printing process from OS
           124 MiB allocation reported by mallinfo(arena+hblkhd)
         11621 MiB available memory on the node where the printing process lives
------------------
     ethr =  3.46E-03,  avg # of iterations =  2.0

     =================== HUBBARD OCCUPATIONS ===================
     ------------------------ ATOM    1 ------------------------
     Tr[ns(  1)] (up, down, total) =   4.97678  1.39727  6.37405
     Atomic magnetic moment for atom   1 =   3.57951
     SPIN  1
     eigenvalues:
       0.991  0.991  0.998  0.998  0.998
     eigenvectors (columns):
       0.303 -0.949  0.000 -0.087  0.006
      -0.048 -0.053  0.577  0.455  0.674
       0.070 -0.015  0.577  0.356 -0.731
      -0.949 -0.303  0.000 -0.006 -0.087
       0.022 -0.068 -0.577  0.811 -0.057
     occupation matrix ns (before diag.):
       0.991 -0.000 -0.000  0.000 -0.001
      -0.000  0.998 -0.000 -0.000  0.000
      -0.000 -0.000  0.998  0.000  0.000
       0.000 -0.000  0.000  0.991 -0.000
      -0.001  0.000  0.000 -0.000  0.998
     SPIN  2
     eigenvalues:
       0.148  0.148  0.347  0.377  0.377
     eigenvectors (columns):
      -0.511 -0.853  0.000 -0.106 -0.005
       0.042 -0.076 -0.577  0.441 -0.682
      -0.086  0.001 -0.577  0.370  0.723
       0.853 -0.511 -0.000 -0.005  0.106
      -0.044 -0.074  0.577  0.811  0.041
     occupation matrix ns (before diag.):
       0.151 -0.010 -0.010  0.000 -0.020
      -0.010  0.365 -0.009 -0.017  0.009
      -0.010 -0.009  0.365  0.017  0.009
       0.000 -0.017  0.017  0.151 -0.000
      -0.020  0.009  0.009 -0.000  0.365
     ------------------------ ATOM    2 ------------------------
     Tr[ns(  2)] (up, down, total) =   1.36441  4.97678  6.34119
     Atomic magnetic moment for atom   2 =  -3.61237
     SPIN  1
     eigenvalues:
       0.147  0.147  0.337  0.366  0.366
     eigenvectors (columns):
      -0.496 -0.861  0.000 -0.110 -0.004
       0.045 -0.077 -0.577  0.433 -0.686
      -0.090 -0.000 -0.577  0.378  0.718
       0.861 -0.496 -0.000 -0.004  0.110
      -0.045 -0.078  0.577  0.811  0.032
     occupation matrix ns (before diag.):
       0.150 -0.010 -0.010  0.000 -0.019
      -0.010  0.355 -0.009 -0.017  0.009
      -0.010 -0.009  0.355  0.017  0.009
       0.000 -0.017  0.017  0.150 -0.000
      -0.019  0.009  0.009 -0.000  0.355
     SPIN  2
     eigenvalues:
       0.991  0.991  0.998  0.998  0.998
     eigenvectors (columns):
       0.621  0.780  0.000  0.082 -0.009
      -0.025  0.063  0.577 -0.478 -0.659
       0.067 -0.010  0.577 -0.332  0.743
      -0.780  0.621  0.000  0.009  0.082
       0.042  0.053 -0.577 -0.809  0.084
     occupation matrix ns (before diag.):
       0.991 -0.000 -0.000  0.000 -0.001
      -0.000  0.998 -0.000 -0.000  0.000
      -0.000 -0.000  0.998  0.000  0.000
       0.000 -0.000  0.000  0.991 -0.000
      -0.001  0.000  0.000 -0.000  0.998

     Number of occupied Hubbard levels =   12.7152

     negative rho (up, down):  4.439E-04 4.277E-04

     HUBBARD ENERGY =    0.0000  (Ry)

     total cpu time spent up to now is       21.9 secs

     total energy              =    -741.76311095 Ry
     estimated scf accuracy    <       0.26124981 Ry

     total magnetization       =    -0.03 Bohr mag/cell
     absolute magnetization    =     7.53 Bohr mag/cell

     iteration #  4     ecut=    70.00 Ry     beta= 0.20
     Davidson diagonalization with overlap

---- Real-time Memory Report at c_bands before calling an iterative solver
           203 MiB given to the printing process from OS
           124 MiB allocation reported by mallinfo(arena+hblkhd)
         11621 MiB available memory on the node where the printing process lives
------------------
     ethr =  5.94E-04,  avg # of iterations =  6.0

     =================== HUBBARD OCCUPATIONS ===================
     ------------------------ ATOM    1 ------------------------
     Tr[ns(  1)] (up, down, total) =   4.94711  1.60463  6.55175
     Atomic magnetic moment for atom   1 =   3.34248
     SPIN  1
     eigenvalues:
       0.978  0.978  0.997  0.997  0.997
     eigenvectors (columns):
       0.414 -0.902  0.000  0.126  0.013
      -0.060 -0.084  0.577 -0.472  0.658
       0.103 -0.010  0.577 -0.333 -0.738
      -0.902 -0.414  0.000  0.013 -0.126
       0.043 -0.094 -0.577 -0.806 -0.080
     occupation matrix ns (before diag.):
       0.978 -0.001 -0.001  0.000 -0.002
      -0.001  0.997 -0.000 -0.002  0.000
      -0.001 -0.000  0.997  0.002  0.000
       0.000 -0.002  0.002  0.978 -0.000
      -0.002  0.000  0.000 -0.000  0.997
     SPIN  2
     eigenvalues:
       0.223  0.223  0.366  0.396  0.396
     eigenvectors (columns):
       0.188 -0.950  0.000  0.248  0.026
      -0.153 -0.134  0.577 -0.323 -0.722
       0.192 -0.066  0.577 -0.464  0.640
      -0.950 -0.188  0.000 -0.026  0.248
       0.039 -0.199 -0.577 -0.787 -0.082
     occupation matrix ns (before diag.):
       0.234 -0.017 -0.017  0.000 -0.034
      -0.017  0.379 -0.006 -0.029  0.006
      -0.017 -0.006  0.379  0.029  0.006
       0.000 -0.029  0.029  0.234 -0.000
      -0.034  0.006  0.006 -0.000  0.379
     ------------------------ ATOM    2 ------------------------
     Tr[ns(  2)] (up, down, total) =   1.68486  4.94774  6.63260
     Atomic magnetic moment for atom   2 =  -3.26288
     SPIN  1
     eigenvalues:
       0.226  0.226  0.388  0.423  0.423
     eigenvectors (columns):
       0.026 -0.974  0.000  0.225  0.024
      -0.157 -0.097  0.577 -0.323 -0.727
       0.162 -0.088  0.577 -0.468  0.643
      -0.974 -0.026  0.000 -0.024  0.225
       0.005 -0.184 -0.577 -0.791 -0.084
     occupation matrix ns (before diag.):
       0.236 -0.018 -0.018  0.000 -0.035
      -0.018  0.404 -0.008 -0.031  0.008
      -0.018 -0.008  0.404  0.031  0.008
       0.000 -0.031  0.031  0.236 -0.000
      -0.035  0.008  0.008 -0.000  0.404
     SPIN  2
     eigenvalues:
       0.979  0.979  0.996  0.997  0.997
     eigenvectors (columns):
      -0.266  0.953  0.000 -0.143  0.006
       0.082  0.084  0.577  0.433  0.682
      -0.114  0.029  0.577  0.375 -0.716
       0.953  0.266  0.000 -0.006 -0.143
      -0.031  0.113 -0.577  0.807 -0.034
     occupation matrix ns (before diag.):
       0.979 -0.001 -0.001  0.000 -0.002
      -0.001  0.996 -0.000 -0.002  0.000
      -0.001 -0.000  0.996  0.002  0.000
       0.000 -0.002  0.002  0.979 -0.000
      -0.002  0.000  0.000 -0.000  0.996

     Number of occupied Hubbard levels =   13.1843

     negative rho (up, down):  3.058E-04 3.041E-04

     HUBBARD ENERGY =    0.0000  (Ry)

     total cpu time spent up to now is       29.0 secs

     total energy              =    -741.80020320 Ry
     estimated scf accuracy    <       0.27687529 Ry

     total magnetization       =     0.08 Bohr mag/cell
     absolute magnetization    =     6.92 Bohr mag/cell

     iteration #  5     ecut=    70.00 Ry     beta= 0.20
     Davidson diagonalization with overlap

---- Real-time Memory Report at c_bands before calling an iterative solver
           204 MiB given to the printing process from OS
           125 MiB allocation reported by mallinfo(arena+hblkhd)
         11796 MiB available memory on the node where the printing process lives
------------------
     ethr =  5.94E-04,  avg # of iterations =  1.3

     =================== HUBBARD OCCUPATIONS ===================
     ------------------------ ATOM    1 ------------------------
     Tr[ns(  1)] (up, down, total) =   4.94907  1.50850  6.45756
     Atomic magnetic moment for atom   1 =   3.44057
     SPIN  1
     eigenvalues:
       0.981  0.981  0.996  0.996  0.996
     eigenvectors (columns):
      -0.493  0.858  0.000 -0.147  0.007
       0.060  0.104  0.577  0.438  0.678
      -0.120  0.000  0.577  0.368 -0.719
       0.858  0.493  0.000 -0.007 -0.147
      -0.060  0.104 -0.577  0.807 -0.041
     occupation matrix ns (before diag.):
       0.981 -0.001 -0.001  0.000 -0.002
      -0.001  0.996 -0.000 -0.002  0.000
      -0.001 -0.000  0.996  0.002  0.000
       0.000 -0.002  0.002  0.981 -0.000
      -0.002  0.000  0.000 -0.000  0.996
     SPIN  2
     eigenvalues:
       0.192  0.192  0.335  0.395  0.395
     eigenvectors (columns):
      -0.603 -0.777 -0.000  0.179 -0.016
       0.055 -0.136  0.577 -0.339  0.728
      -0.145  0.020  0.577 -0.461 -0.658
       0.777 -0.603  0.000 -0.016 -0.179
      -0.090 -0.116 -0.577 -0.800  0.070
     occupation matrix ns (before diag.):
       0.198 -0.015 -0.015  0.000 -0.029
      -0.015  0.371 -0.018 -0.025  0.018
      -0.015 -0.018  0.371  0.025  0.018
       0.000 -0.025  0.025  0.198 -0.000
      -0.029  0.018  0.018 -0.000  0.371
     ------------------------ ATOM    2 ------------------------
     Tr[ns(  2)] (up, down, total) =   1.51988  4.94918  6.46906
     Atomic magnetic moment for atom   2 =  -3.42930
     SPIN  1
     eigenvalues:
       0.192  0.192  0.336  0.400  0.400
     eigenvectors (columns):
       0.499  0.848 -0.000  0.176  0.017
      -0.071  0.125  0.577 -0.333 -0.731
       0.144 -0.001  0.577 -0.467  0.654
      -0.848  0.499  0.000 -0.017  0.176
       0.073  0.124 -0.577 -0.800 -0.077
     occupation matrix ns (before diag.):
       0.198 -0.015 -0.015  0.000 -0.030
      -0.015  0.374 -0.019 -0.026  0.019
      -0.015 -0.019  0.374  0.026  0.019
       0.000 -0.026  0.026  0.198 -0.000
      -0.030  0.019  0.019 -0.000  0.374
     SPIN  2
     eigenvalues:
       0.981  0.981  0.996  0.996  0.996
     eigenvectors (columns):
      -0.278  0.949  0.000 -0.149  0.002
       0.084  0.088  0.577  0.413  0.694
      -0.118  0.029  0.577  0.394 -0.705
       0.949  0.278  0.000 -0.002 -0.149
      -0.034  0.117 -0.577  0.807 -0.011
     occupation matrix ns (before diag.):
       0.981 -0.001 -0.001  0.000 -0.002
      -0.001  0.996 -0.000 -0.002  0.000
      -0.001 -0.000  0.996  0.002  0.000
       0.000 -0.002  0.002  0.981 -0.000
      -0.002  0.000  0.000 -0.000  0.996

     Number of occupied Hubbard levels =   12.9266

     negative rho (up, down):  2.974E-04 2.946E-04

     HUBBARD ENERGY =    0.0000  (Ry)

     total cpu time spent up to now is       34.3 secs

     total energy              =    -741.80357227 Ry
     estimated scf accuracy    <       0.07071959 Ry

     total magnetization       =     0.01 Bohr mag/cell
     absolute magnetization    =     7.12 Bohr mag/cell

     iteration #  6     ecut=    70.00 Ry     beta= 0.20
     Davidson diagonalization with overlap

---- Real-time Memory Report at c_bands before calling an iterative solver
           205 MiB given to the printing process from OS
           126 MiB allocation reported by mallinfo(arena+hblkhd)
         11794 MiB available memory on the node where the printing process lives
------------------
     ethr =  1.61E-04,  avg # of iterations =  2.7

     =================== HUBBARD OCCUPATIONS ===================
     ------------------------ ATOM    1 ------------------------
     Tr[ns(  1)] (up, down, total) =   4.94536  1.45687  6.40223
     Atomic magnetic moment for atom   1 =   3.48849
     SPIN  1
     eigenvalues:
       0.980  0.980  0.995  0.995  0.995
     eigenvectors (columns):
      -0.360  0.921  0.000 -0.146  0.011
       0.075  0.094  0.577  0.456  0.666
      -0.119  0.018  0.577  0.349 -0.728
       0.921  0.360  0.000 -0.011 -0.146
      -0.044  0.112 -0.577  0.805 -0.062
     occupation matrix ns (before diag.):
       0.980 -0.001 -0.001  0.000 -0.002
      -0.001  0.995  0.000 -0.002 -0.000
      -0.001  0.000  0.995  0.002 -0.000
       0.000 -0.002  0.002  0.980 -0.000
      -0.002 -0.000 -0.000 -0.000  0.995
     SPIN  2
     eigenvalues:
       0.181  0.181  0.312  0.391  0.391
     eigenvectors (columns):
       0.368 -0.916 -0.000  0.162  0.008
      -0.082 -0.104  0.577 -0.366 -0.718
       0.131 -0.019  0.577 -0.438  0.676
      -0.916 -0.368  0.000 -0.008  0.162
       0.049 -0.123 -0.577 -0.805 -0.042
     occupation matrix ns (before diag.):
       0.187 -0.014 -0.014  0.000 -0.027
      -0.014  0.361 -0.024 -0.024  0.024
      -0.014 -0.024  0.361  0.024  0.024
       0.000 -0.024  0.024  0.187 -0.000
      -0.027  0.024  0.024 -0.000  0.361
     ------------------------ ATOM    2 ------------------------
     Tr[ns(  2)] (up, down, total) =   1.50067  4.94589  6.44656
     Atomic magnetic moment for atom   2 =  -3.44522
     SPIN  1
     eigenvalues:
       0.184  0.184  0.320  0.407  0.407
     eigenvectors (columns):
       0.348  0.924 -0.000  0.158  0.004
      -0.082  0.099  0.577 -0.387 -0.707
       0.127  0.021  0.577 -0.419  0.689
      -0.924  0.348  0.000 -0.004  0.158
       0.045  0.120 -0.577 -0.806 -0.019
     occupation matrix ns (before diag.):
       0.189 -0.014 -0.014  0.000 -0.028
      -0.014  0.374 -0.027 -0.025  0.027
      -0.014 -0.027  0.374  0.025  0.027
       0.000 -0.025  0.025  0.189 -0.000
      -0.028  0.027  0.027 -0.000  0.374
     SPIN  2
     eigenvalues:
       0.980  0.980  0.995  0.995  0.995
     eigenvectors (columns):
      -0.267  0.951  0.000 -0.154  0.009
       0.088  0.090  0.577  0.442  0.675
      -0.122  0.031  0.577  0.364 -0.720
       0.951  0.267  0.000 -0.009 -0.154
      -0.034  0.122 -0.577  0.805 -0.045
     occupation matrix ns (before diag.):
       0.980 -0.001 -0.001  0.000 -0.002
      -0.001  0.995  0.000 -0.002 -0.000
      -0.001  0.000  0.995  0.002 -0.000
       0.000 -0.002  0.002  0.980 -0.000
      -0.002 -0.000 -0.000 -0.000  0.995

     Number of occupied Hubbard levels =   12.8488

     negative rho (up, down):  3.144E-04 3.131E-04

     HUBBARD ENERGY =    0.0000  (Ry)

     total cpu time spent up to now is       39.0 secs

     total energy              =    -741.81733223 Ry
     estimated scf accuracy    <       0.01109117 Ry

     total magnetization       =     0.04 Bohr mag/cell
     absolute magnetization    =     7.15 Bohr mag/cell

     iteration #  7     ecut=    70.00 Ry     beta= 0.20
     Davidson diagonalization with overlap

---- Real-time Memory Report at c_bands before calling an iterative solver
           205 MiB given to the printing process from OS
           126 MiB allocation reported by mallinfo(arena+hblkhd)
         12640 MiB available memory on the node where the printing process lives
------------------
     ethr =  2.52E-05,  avg # of iterations =  3.3

     =================== HUBBARD OCCUPATIONS ===================
     ------------------------ ATOM    1 ------------------------
     Tr[ns(  1)] (up, down, total) =   4.94337  1.50995  6.45332
     Atomic magnetic moment for atom   1 =   3.43342
     SPIN  1
     eigenvalues:
       0.979  0.979  0.995  0.995  0.995
     eigenvectors (columns):
      -0.115  0.982 -0.000  0.150  0.009
      -0.112  0.048 -0.577 -0.446  0.673
       0.098  0.073 -0.577 -0.359 -0.723
      -0.982 -0.115 -0.000  0.009 -0.150
      -0.014  0.121  0.577 -0.806 -0.050
     occupation matrix ns (before diag.):
       0.979 -0.001 -0.001  0.000 -0.002
      -0.001  0.995  0.000 -0.002 -0.000
      -0.001  0.000  0.995  0.002 -0.000
       0.000 -0.002  0.002  0.979 -0.000
      -0.002 -0.000 -0.000 -0.000  0.995
     SPIN  2
     eigenvalues:
       0.192  0.192  0.319  0.403  0.403
     eigenvectors (columns):
       0.287  0.941 -0.000  0.176  0.009
      -0.098  0.105  0.577 -0.366 -0.715
       0.140  0.032  0.577 -0.437  0.675
      -0.941  0.287  0.000 -0.009  0.176
       0.042  0.138 -0.577 -0.803 -0.041
     occupation matrix ns (before diag.):
       0.199 -0.015 -0.015  0.000 -0.030
      -0.015  0.371 -0.026 -0.026  0.026
      -0.015 -0.026  0.371  0.026  0.026
       0.000 -0.026  0.026  0.199 -0.000
      -0.030  0.026  0.026 -0.000  0.371
     ------------------------ ATOM    2 ------------------------
     Tr[ns(  2)] (up, down, total) =   1.51475  4.94352  6.45827
     Atomic magnetic moment for atom   2 =  -3.42877
     SPIN  1
     eigenvalues:
       0.192  0.192  0.319  0.406  0.406
     eigenvectors (columns):
       0.390  0.904 -0.000  0.176  0.018
      -0.086  0.116  0.577 -0.327 -0.734
       0.143  0.017  0.577 -0.472  0.650
      -0.904  0.390  0.000 -0.018  0.176
       0.057  0.132 -0.577 -0.799 -0.084
     occupation matrix ns (before diag.):
       0.199 -0.015 -0.015  0.000 -0.030
      -0.015  0.372 -0.027 -0.026  0.027
      -0.015 -0.027  0.372  0.026  0.027
       0.000 -0.026  0.026  0.199 -0.000
      -0.030  0.027  0.027 -0.000  0.372
     SPIN  2
     eigenvalues:
       0.979  0.979  0.995  0.995  0.995
     eigenvectors (columns):
       0.137 -0.979  0.000 -0.150  0.015
      -0.097 -0.076  0.577  0.471  0.656
       0.114 -0.046  0.577  0.333 -0.736
      -0.979 -0.137  0.000 -0.015 -0.150
       0.017 -0.122 -0.577  0.803 -0.080
     occupation matrix ns (before diag.):
       0.979 -0.001 -0.001  0.000 -0.002
      -0.001  0.995  0.000 -0.002 -0.000
      -0.001  0.000  0.995  0.002 -0.000
       0.000 -0.002  0.002  0.979 -0.000
      -0.002 -0.000 -0.000 -0.000  0.995

     Number of occupied Hubbard levels =   12.9116

     negative rho (up, down):  2.967E-04 2.958E-04

     HUBBARD ENERGY =    0.0000  (Ry)

     total cpu time spent up to now is       43.0 secs

     total energy              =    -741.81391225 Ry
     estimated scf accuracy    <       0.01957928 Ry

     total magnetization       =     0.00 Bohr mag/cell
     absolute magnetization    =     7.09 Bohr mag/cell

     iteration #  8     ecut=    70.00 Ry     beta= 0.20
     Davidson diagonalization with overlap

---- Real-time Memory Report at c_bands before calling an iterative solver
           206 MiB given to the printing process from OS
           127 MiB allocation reported by mallinfo(arena+hblkhd)
         12566 MiB available memory on the node where the printing process lives
------------------
     ethr =  2.52E-05,  avg # of iterations =  2.2

     =================== HUBBARD OCCUPATIONS ===================
     ------------------------ ATOM    1 ------------------------
     Tr[ns(  1)] (up, down, total) =   4.94404  1.48556  6.42960
     Atomic magnetic moment for atom   1 =   3.45848
     SPIN  1
     eigenvalues:
       0.979  0.979  0.995  0.995  0.995
     eigenvectors (columns):
      -0.138 -0.978 -0.154  0.005  0.000
       0.099 -0.077  0.427  0.685 -0.577
      -0.116 -0.047  0.380 -0.712 -0.577
       0.978 -0.138 -0.005 -0.154 -0.000
      -0.017 -0.124  0.806 -0.027  0.577
     occupation matrix ns (before diag.):
       0.980 -0.001 -0.001  0.000 -0.002
      -0.001  0.995  0.000 -0.002 -0.000
      -0.001  0.000  0.995  0.002 -0.000
       0.000 -0.002  0.002  0.980 -0.000
      -0.002 -0.000 -0.000 -0.000  0.995
     SPIN  2
     eigenvalues:
       0.184  0.184  0.298  0.410  0.410
     eigenvectors (columns):
       0.399  0.902 -0.000  0.167  0.008
      -0.080  0.110  0.577 -0.368 -0.716
       0.135  0.014  0.577 -0.436  0.677
      -0.902  0.399  0.000 -0.008  0.167
       0.055  0.125 -0.577 -0.804 -0.039
     occupation matrix ns (before diag.):
       0.190 -0.015 -0.015  0.000 -0.030
      -0.015  0.368 -0.035 -0.026  0.035
      -0.015 -0.035  0.368  0.026  0.035
       0.000 -0.026  0.026  0.190 -0.000
      -0.030  0.035  0.035 -0.000  0.368
     ------------------------ ATOM    2 ------------------------
     Tr[ns(  2)] (up, down, total) =   1.48412  4.94414  6.42826
     Atomic magnetic moment for atom   2 =  -3.46003
     SPIN  1
     eigenvalues:
       0.184  0.184  0.296  0.410  0.410
     eigenvectors (columns):
       0.444  0.880 -0.000  0.168  0.005
      -0.075  0.115  0.577 -0.384 -0.708
       0.137  0.008  0.577 -0.421  0.686
      -0.880  0.444  0.000 -0.005  0.168
       0.062  0.123 -0.577 -0.805 -0.022
     occupation matrix ns (before diag.):
       0.190 -0.015 -0.015  0.000 -0.031
      -0.015  0.368 -0.036 -0.026  0.036
      -0.015 -0.036  0.368  0.026  0.036
       0.000 -0.026  0.026  0.190 -0.000
      -0.031  0.036  0.036 -0.000  0.368
     SPIN  2
     eigenvalues:
       0.979  0.979  0.995  0.995  0.995
     eigenvectors (columns):
      -0.454 -0.878 -0.152  0.010  0.000
       0.067 -0.105  0.448  0.671 -0.577
      -0.125 -0.006  0.357 -0.723 -0.577
       0.878 -0.454 -0.010 -0.152 -0.000
      -0.057 -0.111  0.805 -0.052  0.577
     occupation matrix ns (before diag.):
       0.980 -0.001 -0.001  0.000 -0.002
      -0.001  0.995  0.000 -0.002 -0.000
      -0.001  0.000  0.995  0.002 -0.000
       0.000 -0.002  0.002  0.980 -0.000
      -0.002 -0.000 -0.000 -0.000  0.995

     Number of occupied Hubbard levels =   12.8579

     negative rho (up, down):  2.741E-04 2.733E-04

     HUBBARD ENERGY =    0.0000  (Ry)

     total cpu time spent up to now is       46.8 secs

     total energy              =    -741.81324849 Ry
     estimated scf accuracy    <       0.00465979 Ry

     total magnetization       =    -0.00 Bohr mag/cell
     absolute magnetization    =     7.14 Bohr mag/cell

     iteration #  9     ecut=    70.00 Ry     beta= 0.20
     Davidson diagonalization with overlap

---- Real-time Memory Report at c_bands before calling an iterative solver
           207 MiB given to the printing process from OS
           128 MiB allocation reported by mallinfo(arena+hblkhd)
         12548 MiB available memory on the node where the printing process lives
------------------
     ethr =  1.06E-05,  avg # of iterations =  5.2

     =================== HUBBARD OCCUPATIONS ===================
     ------------------------ ATOM    1 ------------------------
     Tr[ns(  1)] (up, down, total) =   4.94681  1.45024  6.39705
     Atomic magnetic moment for atom   1 =   3.49657
     SPIN  1
     eigenvalues:
       0.981  0.981  0.995  0.995  0.996
     eigenvectors (columns):
       0.430  0.890  0.153  0.010 -0.000
      -0.070  0.103 -0.448  0.671  0.577
       0.124  0.009 -0.357 -0.724  0.577
      -0.890  0.430  0.010 -0.153  0.000
       0.054  0.112 -0.805 -0.053 -0.577
     occupation matrix ns (before diag.):
       0.981 -0.001 -0.001  0.000 -0.002
      -0.001  0.995  0.000 -0.002 -0.000
      -0.001  0.000  0.995  0.002 -0.000
       0.000 -0.002  0.002  0.981 -0.000
      -0.002 -0.000 -0.000 -0.000  0.995
     SPIN  2
     eigenvalues:
       0.173  0.173  0.280  0.412  0.412
     eigenvectors (columns):
       0.093  0.983  0.000  0.157  0.007
      -0.104  0.074 -0.577 -0.371 -0.716
       0.116  0.053 -0.577 -0.435  0.679
      -0.983  0.093 -0.000 -0.007  0.157
       0.012  0.128  0.577 -0.806 -0.037
     occupation matrix ns (before diag.):
       0.179 -0.015 -0.015  0.000 -0.030
      -0.015  0.364 -0.042 -0.026  0.042
      -0.015 -0.042  0.364  0.026  0.042
       0.000 -0.026  0.026  0.179 -0.000
      -0.030  0.042  0.042 -0.000  0.364
     ------------------------ ATOM    2 ------------------------
     Tr[ns(  2)] (up, down, total) =   1.44952  4.94687  6.39639
     Atomic magnetic moment for atom   2 =  -3.49736
     SPIN  1
     eigenvalues:
       0.173  0.173  0.278  0.413  0.413
     eigenvectors (columns):
      -0.804 -0.573 -0.000  0.158 -0.004
       0.012 -0.128  0.577 -0.383  0.709
      -0.117  0.054  0.577 -0.423 -0.687
       0.573 -0.804  0.000 -0.004 -0.158
      -0.105 -0.075 -0.577 -0.806  0.023
     occupation matrix ns (before diag.):
       0.179 -0.015 -0.015  0.000 -0.031
      -0.015  0.364 -0.043 -0.026  0.043
      -0.015 -0.043  0.364  0.026  0.043
       0.000 -0.026  0.026  0.179 -0.000
      -0.031  0.043  0.043 -0.000  0.364
     SPIN  2
     eigenvalues:
       0.981  0.981  0.995  0.995  0.996
     eigenvectors (columns):
      -0.315  0.937 -0.152  0.007 -0.000
       0.082  0.093  0.434  0.680  0.577
      -0.122  0.025  0.372 -0.716  0.577
       0.937  0.315 -0.007 -0.152  0.000
      -0.040  0.118  0.806 -0.036 -0.577
     occupation matrix ns (before diag.):
       0.981 -0.001 -0.001  0.000 -0.002
      -0.001  0.995  0.000 -0.002 -0.000
      -0.001  0.000  0.995  0.002 -0.000
       0.000 -0.002  0.002  0.981 -0.000
      -0.002 -0.000 -0.000 -0.000  0.995

     Number of occupied Hubbard levels =   12.7934

     negative rho (up, down):  2.754E-04 2.746E-04

     HUBBARD ENERGY =    0.0000  (Ry)

     total cpu time spent up to now is       51.6 secs

     total energy              =    -741.81616993 Ry
     estimated scf accuracy    <       0.00268401 Ry

     total magnetization       =    -0.00 Bohr mag/cell
     absolute magnetization    =     7.20 Bohr mag/cell

     iteration # 10     ecut=    70.00 Ry     beta= 0.20
     Davidson diagonalization with overlap

---- Real-time Memory Report at c_bands before calling an iterative solver
           207 MiB given to the printing process from OS
           129 MiB allocation reported by mallinfo(arena+hblkhd)
         12482 MiB available memory on the node where the printing process lives
------------------
     ethr =  6.10E-06,  avg # of iterations =  1.2

     =================== HUBBARD OCCUPATIONS ===================
     ------------------------ ATOM    1 ------------------------
     Tr[ns(  1)] (up, down, total) =   4.94684  1.45105  6.39788
     Atomic magnetic moment for atom   1 =   3.49579
     SPIN  1
     eigenvalues:
       0.981  0.981  0.995  0.995  0.996
     eigenvectors (columns):
       0.333 -0.931  0.152  0.007 -0.000
      -0.081 -0.095 -0.437  0.679  0.577
       0.123 -0.022 -0.369 -0.717  0.577
      -0.931 -0.333  0.007 -0.152  0.000
       0.042 -0.117 -0.806 -0.039 -0.577
     occupation matrix ns (before diag.):
       0.981 -0.001 -0.001  0.000 -0.002
      -0.001  0.995  0.000 -0.002 -0.000
      -0.001  0.000  0.995  0.002 -0.000
       0.000 -0.002  0.002  0.981 -0.000
      -0.002 -0.000 -0.000 -0.000  0.995
     SPIN  2
     eigenvalues:
       0.173  0.173  0.281  0.412  0.412
     eigenvectors (columns):
       0.258  0.953 -0.000  0.156  0.006
      -0.090  0.091  0.577 -0.378 -0.712
       0.123  0.033  0.577 -0.428  0.684
      -0.953  0.258  0.000 -0.006  0.156
       0.033  0.123 -0.577 -0.806 -0.029
     occupation matrix ns (before diag.):
       0.179 -0.015 -0.015  0.000 -0.030
      -0.015  0.364 -0.042 -0.026  0.042
      -0.015 -0.042  0.364  0.026  0.042
       0.000 -0.026  0.026  0.179 -0.000
      -0.030  0.042  0.042 -0.000  0.364
     ------------------------ ATOM    2 ------------------------
     Tr[ns(  2)] (up, down, total) =   1.44992  4.94691  6.39682
     Atomic magnetic moment for atom   2 =  -3.49699
     SPIN  1
     eigenvalues:
       0.173  0.173  0.279  0.412  0.412
     eigenvectors (columns):
       0.758  0.633 -0.000  0.157  0.010
      -0.022  0.127  0.577 -0.356 -0.723
       0.121 -0.044  0.577 -0.448  0.670
      -0.633  0.758  0.000 -0.010  0.157
       0.099  0.082 -0.577 -0.805 -0.053
     occupation matrix ns (before diag.):
       0.179 -0.015 -0.015  0.000 -0.030
      -0.015  0.364 -0.042 -0.026  0.042
      -0.015 -0.042  0.364  0.026  0.042
       0.000 -0.026  0.026  0.179 -0.000
      -0.030  0.042  0.042 -0.000  0.364
     SPIN  2
     eigenvalues:
       0.981  0.981  0.995  0.995  0.996
     eigenvectors (columns):
      -0.265  0.952  0.152  0.006 -0.000
       0.087  0.089 -0.374 -0.715  0.577
      -0.120  0.031 -0.432  0.682  0.577
       0.952  0.265 -0.006  0.152  0.000
      -0.033  0.120 -0.806 -0.033 -0.577
     occupation matrix ns (before diag.):
       0.981 -0.001 -0.001  0.000 -0.002
      -0.001  0.995  0.000 -0.002 -0.000
      -0.001  0.000  0.995  0.002 -0.000
       0.000 -0.002  0.002  0.981 -0.000
      -0.002 -0.000 -0.000 -0.000  0.995

     Number of occupied Hubbard levels =   12.7947

     negative rho (up, down):  2.636E-04 2.642E-04

     HUBBARD ENERGY =    0.0000  (Ry)

     total cpu time spent up to now is       55.1 secs

     total energy              =    -741.81466806 Ry
     estimated scf accuracy    <       0.00271681 Ry

     total magnetization       =    -0.00 Bohr mag/cell
     absolute magnetization    =     7.20 Bohr mag/cell

     iteration # 11     ecut=    70.00 Ry     beta= 0.20
     Davidson diagonalization with overlap

---- Real-time Memory Report at c_bands before calling an iterative solver
           208 MiB given to the printing process from OS
           129 MiB allocation reported by mallinfo(arena+hblkhd)
         12500 MiB available memory on the node where the printing process lives
------------------
     ethr =  6.10E-06,  avg # of iterations =  4.8

     =================== HUBBARD OCCUPATIONS ===================
     ------------------------ ATOM    1 ------------------------
     Tr[ns(  1)] (up, down, total) =   4.94351  1.46421  6.40772
     Atomic magnetic moment for atom   1 =   3.47930
     SPIN  1
     eigenvalues:
       0.979  0.979  0.995  0.995  0.996
     eigenvectors (columns):
       0.169  0.971  0.171  0.009  0.000
      -0.108  0.090 -0.439  0.674 -0.577
       0.132  0.048 -0.364 -0.717 -0.577
      -0.971  0.169  0.009 -0.171 -0.000
       0.024  0.138 -0.803 -0.044  0.577
     occupation matrix ns (before diag.):
       0.980 -0.001 -0.001  0.000 -0.002
      -0.001  0.995  0.001 -0.002 -0.001
      -0.001  0.001  0.995  0.002 -0.001
       0.000 -0.002  0.002  0.980 -0.000
      -0.002 -0.001 -0.001 -0.000  0.995
     SPIN  2
     eigenvalues:
       0.178  0.178  0.235  0.437  0.437
     eigenvectors (columns):
       0.313  0.931 -0.000  0.187  0.009
      -0.101  0.114  0.577 -0.366 -0.714
       0.149  0.030  0.577 -0.435  0.674
      -0.931  0.313  0.000 -0.009  0.187
       0.049  0.145 -0.577 -0.801 -0.040
     occupation matrix ns (before diag.):
       0.187 -0.019 -0.019  0.000 -0.039
      -0.019  0.364 -0.064 -0.034  0.064
      -0.019 -0.064  0.364  0.034  0.064
       0.000 -0.034  0.034  0.187 -0.000
      -0.039  0.064  0.064 -0.000  0.364
     ------------------------ ATOM    2 ------------------------
     Tr[ns(  2)] (up, down, total) =   1.46939  4.94344  6.41283
     Atomic magnetic moment for atom   2 =  -3.47405
     SPIN  1
     eigenvalues:
       0.178  0.178  0.236  0.439  0.439
     eigenvectors (columns):
       0.282  0.941 -0.000  0.185  0.015
      -0.104  0.110  0.577 -0.345 -0.724
       0.148  0.035  0.577 -0.454  0.661
      -0.941  0.282  0.000 -0.015  0.185
       0.044  0.145 -0.577 -0.800 -0.063
     occupation matrix ns (before diag.):
       0.187 -0.019 -0.019  0.000 -0.039
      -0.019  0.365 -0.065 -0.034  0.065
      -0.019 -0.065  0.365  0.034  0.065
       0.000 -0.034  0.034  0.187 -0.000
      -0.039  0.065  0.065 -0.000  0.365
     SPIN  2
     eigenvalues:
       0.979  0.979  0.995  0.995  0.996
     eigenvectors (columns):
       0.320  0.931 -0.173  0.010  0.000
      -0.093  0.106  0.443  0.671 -0.577
       0.139  0.027  0.360 -0.719 -0.577
      -0.931  0.320 -0.010 -0.173 -0.000
       0.046  0.133  0.803 -0.048  0.577
     occupation matrix ns (before diag.):
       0.980 -0.001 -0.001  0.000 -0.002
      -0.001  0.995  0.001 -0.002 -0.001
      -0.001  0.001  0.995  0.002 -0.001
       0.000 -0.002  0.002  0.980 -0.000
      -0.002 -0.001 -0.001 -0.000  0.995

     Number of occupied Hubbard levels =   12.8205

     negative rho (up, down):  2.673E-04 2.677E-04

     HUBBARD ENERGY =    0.0000  (Ry)

     total cpu time spent up to now is       59.8 secs

     total energy              =    -741.81594400 Ry
     estimated scf accuracy    <       0.00042436 Ry

     total magnetization       =     0.01 Bohr mag/cell
     absolute magnetization    =     7.17 Bohr mag/cell

     iteration # 12     ecut=    70.00 Ry     beta= 0.20
     Davidson diagonalization with overlap

---- Real-time Memory Report at c_bands before calling an iterative solver
           208 MiB given to the printing process from OS
           129 MiB allocation reported by mallinfo(arena+hblkhd)
         12595 MiB available memory on the node where the printing process lives
------------------
     ethr =  9.64E-07,  avg # of iterations =  3.4

     =================== HUBBARD OCCUPATIONS ===================
     ------------------------ ATOM    1 ------------------------
     Tr[ns(  1)] (up, down, total) =   4.94381  1.46679  6.41059
     Atomic magnetic moment for atom   1 =   3.47702
     SPIN  1
     eigenvalues:
       0.979  0.979  0.995  0.995  0.996
     eigenvectors (columns):
       0.095  0.981  0.169  0.002  0.000
      -0.112  0.080 -0.411  0.692 -0.577
       0.125  0.057 -0.393 -0.702 -0.577
      -0.981  0.095  0.002 -0.169 -0.000
       0.013  0.137 -0.805 -0.011  0.577
     occupation matrix ns (before diag.):
       0.980 -0.001 -0.001  0.000 -0.002
      -0.001  0.995  0.001 -0.002 -0.001
      -0.001  0.001  0.995  0.002 -0.001
       0.000 -0.002  0.002  0.980 -0.000
      -0.002 -0.001 -0.001 -0.000  0.995
     SPIN  2
     eigenvalues:
       0.178  0.178  0.241  0.434  0.434
     eigenvectors (columns):
       0.407  0.894 -0.000  0.184  0.009
      -0.088  0.123  0.577 -0.368 -0.713
       0.150  0.015  0.577 -0.434  0.675
      -0.894  0.407  0.000 -0.009  0.184
       0.062  0.137 -0.577 -0.802 -0.038
     occupation matrix ns (before diag.):
       0.187 -0.019 -0.019  0.000 -0.038
      -0.019  0.364 -0.061 -0.033  0.061
      -0.019 -0.061  0.364  0.033  0.061
       0.000 -0.033  0.033  0.187 -0.000
      -0.038  0.061  0.061 -0.000  0.364
     ------------------------ ATOM    2 ------------------------
     Tr[ns(  2)] (up, down, total) =   1.47016  4.94375  6.41390
     Atomic magnetic moment for atom   2 =  -3.47359
     SPIN  1
     eigenvalues:
       0.178  0.178  0.242  0.436  0.436
     eigenvectors (columns):
       0.231  0.955 -0.000  0.183  0.025
      -0.109  0.104  0.577 -0.304 -0.743
       0.144  0.042  0.577 -0.491  0.634
      -0.955  0.231  0.000 -0.025  0.183
       0.035  0.146 -0.577 -0.795 -0.108
     occupation matrix ns (before diag.):
       0.187 -0.019 -0.019  0.000 -0.038
      -0.019  0.365 -0.062 -0.033  0.062
      -0.019 -0.062  0.365  0.033  0.062
       0.000 -0.033  0.033  0.187 -0.000
      -0.038  0.062  0.062 -0.000  0.365
     SPIN  2
     eigenvalues:
       0.979  0.979  0.995  0.995  0.996
     eigenvectors (columns):
       0.097  0.981 -0.169  0.001  0.000
      -0.112  0.081  0.406  0.695 -0.577
       0.126  0.057  0.399 -0.699 -0.577
      -0.981  0.097 -0.001 -0.169 -0.000
       0.014  0.138  0.805 -0.004  0.577
     occupation matrix ns (before diag.):
       0.980 -0.001 -0.001  0.000 -0.002
      -0.001  0.995  0.001 -0.002 -0.001
      -0.001  0.001  0.995  0.002 -0.001
       0.000 -0.002  0.002  0.980 -0.000
      -0.002 -0.001 -0.001 -0.000  0.995

     Number of occupied Hubbard levels =   12.8245

     negative rho (up, down):  2.727E-04 2.728E-04

     HUBBARD ENERGY =    0.0000  (Ry)

     total cpu time spent up to now is       63.7 secs

     total energy              =    -741.81582913 Ry
     estimated scf accuracy    <       0.00036283 Ry

     total magnetization       =     0.00 Bohr mag/cell
     absolute magnetization    =     7.17 Bohr mag/cell

     iteration # 13     ecut=    70.00 Ry     beta= 0.20
     Davidson diagonalization with overlap

---- Real-time Memory Report at c_bands before calling an iterative solver
           208 MiB given to the printing process from OS
           129 MiB allocation reported by mallinfo(arena+hblkhd)
         12586 MiB available memory on the node where the printing process lives
------------------
     ethr =  8.25E-07,  avg # of iterations =  2.0

     =================== HUBBARD OCCUPATIONS ===================
     ------------------------ ATOM    1 ------------------------
     Tr[ns(  1)] (up, down, total) =   4.94440  1.46831  6.41270
     Atomic magnetic moment for atom   1 =   3.47609
     SPIN  1
     eigenvalues:
       0.980  0.980  0.995  0.995  0.996
     eigenvectors (columns):
       0.391  0.906 -0.164  0.005  0.000
      -0.080  0.108  0.423  0.685 -0.577
       0.133  0.016  0.382 -0.709 -0.577
      -0.906  0.391 -0.005 -0.164 -0.000
       0.053  0.123  0.805 -0.023  0.577
     occupation matrix ns (before diag.):
       0.980 -0.001 -0.001  0.000 -0.002
      -0.001  0.995  0.000 -0.002 -0.000
      -0.001  0.000  0.995  0.002 -0.000
       0.000 -0.002  0.002  0.980 -0.000
      -0.002 -0.000 -0.000 -0.000  0.995
     SPIN  2
     eigenvalues:
       0.178  0.178  0.253  0.429  0.429
     eigenvectors (columns):
       0.221  0.959 -0.000  0.179  0.014
      -0.107  0.100  0.577 -0.344 -0.726
       0.140  0.043  0.577 -0.456  0.661
      -0.959  0.221  0.000 -0.014  0.179
       0.033  0.143 -0.577 -0.801 -0.065
     occupation matrix ns (before diag.):
       0.187 -0.018 -0.018  0.000 -0.036
      -0.018  0.365 -0.056 -0.031  0.056
      -0.018 -0.056  0.365  0.031  0.056
       0.000 -0.031  0.031  0.187 -0.000
      -0.036  0.056  0.056 -0.000  0.365
     ------------------------ ATOM    2 ------------------------
     Tr[ns(  2)] (up, down, total) =   1.46927  4.94435  6.41362
     Atomic magnetic moment for atom   2 =  -3.47508
     SPIN  1
     eigenvalues:
       0.178  0.178  0.253  0.430  0.430
     eigenvectors (columns):
       0.385  0.905 -0.000  0.179  0.015
      -0.088  0.117  0.577 -0.343 -0.727
       0.145  0.018  0.577 -0.458  0.660
      -0.905  0.385  0.000 -0.015  0.179
       0.057  0.135 -0.577 -0.800 -0.067
     occupation matrix ns (before diag.):
       0.187 -0.018 -0.018  0.000 -0.036
      -0.018  0.365 -0.056 -0.031  0.056
      -0.018 -0.056  0.365  0.031  0.056
       0.000 -0.031  0.031  0.187 -0.000
      -0.036  0.056  0.056 -0.000  0.365
     SPIN  2
     eigenvalues:
       0.980  0.980  0.995  0.995  0.996
     eigenvectors (columns):
       0.312  0.936 -0.164  0.005  0.000
      -0.089  0.100  0.422  0.686 -0.577
       0.132  0.027  0.383 -0.708 -0.577
      -0.936  0.312 -0.005 -0.164 -0.000
       0.042  0.127  0.805 -0.023  0.577
     occupation matrix ns (before diag.):
       0.980 -0.001 -0.001  0.000 -0.002
      -0.001  0.995  0.000 -0.002 -0.000
      -0.001  0.000  0.995  0.002 -0.000
       0.000 -0.002  0.002  0.980 -0.000
      -0.002 -0.000 -0.000 -0.000  0.995

     Number of occupied Hubbard levels =   12.8263

     negative rho (up, down):  2.708E-04 2.711E-04

     HUBBARD ENERGY =    0.0000  (Ry)

     total cpu time spent up to now is       67.3 secs

     total energy              =    -741.81592156 Ry
     estimated scf accuracy    <       0.00023302 Ry

     total magnetization       =     0.00 Bohr mag/cell
     absolute magnetization    =     7.17 Bohr mag/cell

     iteration # 14     ecut=    70.00 Ry     beta= 0.20
     Davidson diagonalization with overlap

---- Real-time Memory Report at c_bands before calling an iterative solver
           208 MiB given to the printing process from OS
           129 MiB allocation reported by mallinfo(arena+hblkhd)
         12580 MiB available memory on the node where the printing process lives
------------------
     ethr =  5.30E-07,  avg # of iterations =  2.4

     =================== HUBBARD OCCUPATIONS ===================
     ------------------------ ATOM    1 ------------------------
     Tr[ns(  1)] (up, down, total) =   4.94406  1.47357  6.41762
     Atomic magnetic moment for atom   1 =   3.47049
     SPIN  1
     eigenvalues:
       0.979  0.979  0.995  0.995  0.996
     eigenvectors (columns):
       0.211  0.963  0.165  0.004  0.000
      -0.100  0.091 -0.421  0.686 -0.577
       0.129  0.041 -0.384 -0.708 -0.577
      -0.963  0.211  0.004 -0.165 -0.000
       0.029  0.132 -0.805 -0.022  0.577
     occupation matrix ns (before diag.):
       0.980 -0.001 -0.001  0.000 -0.002
      -0.001  0.995  0.001 -0.002 -0.001
      -0.001  0.001  0.995  0.002 -0.001
       0.000 -0.002  0.002  0.980 -0.000
      -0.002 -0.001 -0.001 -0.000  0.995
     SPIN  2
     eigenvalues:
       0.180  0.180  0.241  0.437  0.437
     eigenvectors (columns):
       0.492  0.850 -0.000  0.187  0.012
      -0.076  0.132  0.577 -0.355 -0.719
       0.153 -0.000  0.577 -0.445  0.667
      -0.850  0.492  0.000 -0.012  0.187
       0.076  0.132 -0.577 -0.800 -0.052
     occupation matrix ns (before diag.):
       0.189 -0.019 -0.019  0.000 -0.038
      -0.019  0.365 -0.062 -0.033  0.062
      -0.019 -0.062  0.365  0.033  0.062
       0.000 -0.033  0.033  0.189 -0.000
      -0.038  0.062  0.062 -0.000  0.365
     ------------------------ ATOM    2 ------------------------
     Tr[ns(  2)] (up, down, total) =   1.47539  4.94405  6.41944
     Atomic magnetic moment for atom   2 =  -3.46866
     SPIN  1
     eigenvalues:
       0.180  0.180  0.240  0.438  0.438
     eigenvectors (columns):
       0.255  0.949 -0.000  0.187  0.006
      -0.108  0.108  0.577 -0.377 -0.708
       0.147  0.039  0.577 -0.425  0.680
      -0.949  0.255  0.000 -0.006  0.187
       0.040  0.147 -0.577 -0.802 -0.028
     occupation matrix ns (before diag.):
       0.189 -0.019 -0.019  0.000 -0.039
      -0.019  0.366 -0.063 -0.033  0.063
      -0.019 -0.063  0.366  0.033  0.063
       0.000 -0.033  0.033  0.189 -0.000
      -0.039  0.063  0.063 -0.000  0.366
     SPIN  2
     eigenvalues:
       0.979  0.979  0.995  0.995  0.996
     eigenvectors (columns):
       0.086  0.982  0.166  0.007  0.000
      -0.111  0.078 -0.430  0.681 -0.577
       0.123  0.057 -0.375 -0.713 -0.577
      -0.982  0.086  0.007 -0.166 -0.000
       0.012  0.135 -0.805 -0.032  0.577
     occupation matrix ns (before diag.):
       0.980 -0.001 -0.001  0.000 -0.002
      -0.001  0.995  0.001 -0.002 -0.001
      -0.001  0.001  0.995  0.002 -0.001
       0.000 -0.002  0.002  0.980 -0.000
      -0.002 -0.001 -0.001 -0.000  0.995

     Number of occupied Hubbard levels =   12.8371

     negative rho (up, down):  2.670E-04 2.676E-04

     HUBBARD ENERGY =    0.0000  (Ry)

     total cpu time spent up to now is       71.0 secs

     total energy              =    -741.81601726 Ry
     estimated scf accuracy    <       0.00049431 Ry

     total magnetization       =     0.00 Bohr mag/cell
     absolute magnetization    =     7.16 Bohr mag/cell

     iteration # 15     ecut=    70.00 Ry     beta= 0.20
     Davidson diagonalization with overlap

---- Real-time Memory Report at c_bands before calling an iterative solver
           208 MiB given to the printing process from OS
           129 MiB allocation reported by mallinfo(arena+hblkhd)
         12574 MiB available memory on the node where the printing process lives
------------------
     ethr =  5.30E-07,  avg # of iterations =  1.4

     =================== HUBBARD OCCUPATIONS ===================
     ------------------------ ATOM    1 ------------------------
     Tr[ns(  1)] (up, down, total) =   4.94377  1.47444  6.41821
     Atomic magnetic moment for atom   1 =   3.46933
     SPIN  1
     eigenvalues:
       0.979  0.979  0.995  0.995  0.996
     eigenvectors (columns):
       0.000 -0.986  0.169 -0.000  0.000
      -0.119 -0.069 -0.402  0.697 -0.577
       0.119 -0.069 -0.402 -0.697 -0.577
      -0.986 -0.000  0.000 -0.169 -0.000
       0.000 -0.138 -0.805 -0.000  0.577
     occupation matrix ns (before diag.):
       0.980 -0.001 -0.001  0.000 -0.002
      -0.001  0.995  0.001 -0.002 -0.001
      -0.001  0.001  0.995  0.002 -0.001
       0.000 -0.002  0.002  0.980 -0.000
      -0.002 -0.001 -0.001 -0.000  0.995
     SPIN  2
     eigenvalues:
       0.180  0.180  0.231  0.442  0.442
     eigenvectors (columns):
       0.155  0.969 -0.000  0.192  0.007
      -0.122  0.099  0.577 -0.375 -0.708
       0.146  0.056  0.577 -0.426  0.679
      -0.969  0.155  0.000 -0.007  0.192
       0.025  0.155 -0.577 -0.801 -0.029
     occupation matrix ns (before diag.):
       0.190 -0.020 -0.020  0.000 -0.040
      -0.020  0.365 -0.067 -0.035  0.067
      -0.020 -0.067  0.365  0.035  0.067
       0.000 -0.035  0.035  0.190 -0.000
      -0.040  0.067  0.067 -0.000  0.365
     ------------------------ ATOM    2 ------------------------
     Tr[ns(  2)] (up, down, total) =   1.47521  4.94372  6.41893
     Atomic magnetic moment for atom   2 =  -3.46851
     SPIN  1
     eigenvalues:
       0.180  0.180  0.230  0.442  0.442
     eigenvectors (columns):
       0.195  0.962 -0.000  0.192  0.008
      -0.117  0.104  0.577 -0.372 -0.710
       0.148  0.050  0.577 -0.429  0.677
      -0.962  0.195  0.000 -0.008  0.192
       0.031  0.153 -0.577 -0.801 -0.033
     occupation matrix ns (before diag.):
       0.190 -0.020 -0.020  0.000 -0.040
      -0.020  0.365 -0.067 -0.035  0.067
      -0.020 -0.067  0.365  0.035  0.067
       0.000 -0.035  0.035  0.190 -0.000
      -0.040  0.067  0.067 -0.000  0.365
     SPIN  2
     eigenvalues:
       0.979  0.979  0.995  0.995  0.996
     eigenvectors (columns):
       0.476  0.863 -0.169 -0.000  0.000
      -0.071  0.118  0.401  0.698 -0.577
       0.138  0.003  0.404 -0.696 -0.577
      -0.863  0.476  0.000 -0.169 -0.000
       0.067  0.121  0.805  0.001  0.577
     occupation matrix ns (before diag.):
       0.980 -0.001 -0.001  0.000 -0.002
      -0.001  0.995  0.001 -0.002 -0.001
      -0.001  0.001  0.995  0.002 -0.001
       0.000 -0.002  0.002  0.980 -0.000
      -0.002 -0.001 -0.001 -0.000  0.995

     Number of occupied Hubbard levels =   12.8371

     negative rho (up, down):  2.670E-04 2.676E-04

     HUBBARD ENERGY =    0.0000  (Ry)

     total cpu time spent up to now is       74.3 secs

     total energy              =    -741.81600556 Ry
     estimated scf accuracy    <       0.00057242 Ry

     total magnetization       =     0.00 Bohr mag/cell
     absolute magnetization    =     7.16 Bohr mag/cell

     iteration # 16     ecut=    70.00 Ry     beta= 0.20
     Davidson diagonalization with overlap

---- Real-time Memory Report at c_bands before calling an iterative solver
           208 MiB given to the printing process from OS
           129 MiB allocation reported by mallinfo(arena+hblkhd)
         12419 MiB available memory on the node where the printing process lives
------------------
     ethr =  5.30E-07,  avg # of iterations =  1.1

     =================== HUBBARD OCCUPATIONS ===================
     ------------------------ ATOM    1 ------------------------
     Tr[ns(  1)] (up, down, total) =   4.94391  1.47289  6.41679
     Atomic magnetic moment for atom   1 =   3.47102
     SPIN  1
     eigenvalues:
       0.979  0.979  0.995  0.995  0.996
     eigenvectors (columns):
       0.084  0.982 -0.168 -0.011  0.000
      -0.113  0.079  0.448 -0.669 -0.577
       0.125  0.058  0.355  0.722 -0.577
      -0.982  0.084 -0.011  0.168 -0.000
       0.012  0.137  0.803  0.054  0.577
     occupation matrix ns (before diag.):
       0.980 -0.001 -0.001  0.000 -0.002
      -0.001  0.995  0.001 -0.002 -0.001
      -0.001  0.001  0.995  0.002 -0.001
       0.000 -0.002  0.002  0.980 -0.000
      -0.002 -0.001 -0.001 -0.000  0.995
     SPIN  2
     eigenvalues:
       0.179  0.179  0.230  0.442  0.442
     eigenvectors (columns):
       0.085  0.978 -0.000  0.191  0.009
      -0.128  0.090  0.577 -0.367 -0.712
       0.142  0.066  0.577 -0.433  0.674
      -0.978  0.085  0.000 -0.009  0.191
       0.013  0.156 -0.577 -0.800 -0.038
     occupation matrix ns (before diag.):
       0.189 -0.020 -0.020  0.000 -0.040
      -0.020  0.365 -0.067 -0.035  0.067
      -0.020 -0.067  0.365  0.035  0.067
       0.000 -0.035  0.035  0.189 -0.000
      -0.040  0.067  0.067 -0.000  0.365
     ------------------------ ATOM    2 ------------------------
     Tr[ns(  2)] (up, down, total) =   1.47328  4.94386  6.41714
     Atomic magnetic moment for atom   2 =  -3.47059
     SPIN  1
     eigenvalues:
       0.179  0.179  0.230  0.442  0.442
     eigenvectors (columns):
       0.071  0.979 -0.000  0.190  0.019
      -0.129  0.088  0.577 -0.329 -0.731
       0.141  0.068  0.577 -0.468  0.650
      -0.979  0.071  0.000 -0.019  0.190
       0.011  0.156 -0.577 -0.797 -0.080
     occupation matrix ns (before diag.):
       0.189 -0.020 -0.020  0.000 -0.040
      -0.020  0.365 -0.067 -0.035  0.067
      -0.020 -0.067  0.365  0.035  0.067
       0.000 -0.035  0.035  0.189 -0.000
      -0.040  0.067  0.067 -0.000  0.365
     SPIN  2
     eigenvalues:
       0.979  0.979  0.995  0.995  0.996
     eigenvectors (columns):
       0.237  0.957 -0.169  0.005  0.000
      -0.099  0.096  0.425  0.684 -0.577
       0.132  0.038  0.380 -0.710 -0.577
      -0.957  0.237 -0.005 -0.169 -0.000
       0.033  0.134  0.804 -0.026  0.577
     occupation matrix ns (before diag.):
       0.980 -0.001 -0.001  0.000 -0.002
      -0.001  0.995  0.001 -0.002 -0.001
      -0.001  0.001  0.995  0.002 -0.001
       0.000 -0.002  0.002  0.980 -0.000
      -0.002 -0.001 -0.001 -0.000  0.995

     Number of occupied Hubbard levels =   12.8339

     negative rho (up, down):  2.674E-04 2.679E-04

     HUBBARD ENERGY =    0.0000  (Ry)

     total cpu time spent up to now is       78.0 secs

     total energy              =    -741.81598394 Ry
     estimated scf accuracy    <       0.00044111 Ry

     total magnetization       =     0.00 Bohr mag/cell
     absolute magnetization    =     7.16 Bohr mag/cell

     iteration # 17     ecut=    70.00 Ry     beta= 0.20
     Davidson diagonalization with overlap

---- Real-time Memory Report at c_bands before calling an iterative solver
           208 MiB given to the printing process from OS
           129 MiB allocation reported by mallinfo(arena+hblkhd)
         12424 MiB available memory on the node where the printing process lives
------------------
     ethr =  5.30E-07,  avg # of iterations =  1.0

     =================== HUBBARD OCCUPATIONS ===================
     ------------------------ ATOM    1 ------------------------
     Tr[ns(  1)] (up, down, total) =   4.94398  1.47155  6.41553
     Atomic magnetic moment for atom   1 =   3.47243
     SPIN  1
     eigenvalues:
       0.979  0.979  0.995  0.995  0.996
     eigenvectors (columns):
       0.327  0.930 -0.169  0.007  0.000
      -0.090  0.105  0.431  0.679 -0.577
       0.136  0.025  0.373 -0.713 -0.577
      -0.930  0.327 -0.007 -0.169 -0.000
       0.046  0.130  0.804 -0.034  0.577
     occupation matrix ns (before diag.):
       0.980 -0.001 -0.001  0.000 -0.002
      -0.001  0.995  0.001 -0.002 -0.001
      -0.001  0.001  0.995  0.002 -0.001
       0.000 -0.002  0.002  0.980 -0.000
      -0.002 -0.001 -0.001 -0.000  0.995
     SPIN  2
     eigenvalues:
       0.179  0.179  0.230  0.442  0.442
     eigenvectors (columns):
       0.202  0.961 -0.000  0.191  0.012
      -0.116  0.104  0.577 -0.357 -0.718
       0.148  0.049  0.577 -0.443  0.668
      -0.961  0.202  0.000 -0.012  0.191
       0.032  0.153 -0.577 -0.800 -0.050
     occupation matrix ns (before diag.):
       0.189 -0.020 -0.020  0.000 -0.040
      -0.020  0.365 -0.067 -0.035  0.067
      -0.020 -0.067  0.365  0.035  0.067
       0.000 -0.035  0.035  0.189 -0.000
      -0.040  0.067  0.067 -0.000  0.365
     ------------------------ ATOM    2 ------------------------
     Tr[ns(  2)] (up, down, total) =   1.47187  4.94394  6.41581
     Atomic magnetic moment for atom   2 =  -3.47207
     SPIN  1
     eigenvalues:
       0.179  0.179  0.230  0.442  0.442
     eigenvectors (columns):
       0.322  0.927 -0.000  0.191  0.010
      -0.102  0.118  0.577 -0.364 -0.714
       0.153  0.029  0.577 -0.437  0.672
      -0.927  0.322  0.000 -0.010  0.191
       0.051  0.147 -0.577 -0.800 -0.042
     occupation matrix ns (before diag.):
       0.189 -0.020 -0.020  0.000 -0.040
      -0.020  0.365 -0.067 -0.035  0.067
      -0.020 -0.067  0.365  0.035  0.067
       0.000 -0.035  0.035  0.189 -0.000
      -0.040  0.067  0.067 -0.000  0.365
     SPIN  2
     eigenvalues:
       0.979  0.979  0.995  0.995  0.996
     eigenvectors (columns):
       0.262  0.950 -0.169  0.007  0.000
      -0.097  0.098  0.429  0.681 -0.577
       0.134  0.035  0.375 -0.712 -0.577
      -0.950  0.262 -0.007 -0.169 -0.000
       0.037  0.133  0.804 -0.031  0.577
     occupation matrix ns (before diag.):
       0.980 -0.001 -0.001  0.000 -0.002
      -0.001  0.995  0.001 -0.002 -0.001
      -0.001  0.001  0.995  0.002 -0.001
       0.000 -0.002  0.002  0.980 -0.000
      -0.002 -0.001 -0.001 -0.000  0.995

     Number of occupied Hubbard levels =   12.8313

     negative rho (up, down):  2.666E-04 2.673E-04

     HUBBARD ENERGY =    0.0000  (Ry)

     total cpu time spent up to now is       81.7 secs

     total energy              =    -741.81602460 Ry
     estimated scf accuracy    <       0.00033593 Ry

     total magnetization       =     0.00 Bohr mag/cell
     absolute magnetization    =     7.16 Bohr mag/cell

     iteration # 18     ecut=    70.00 Ry     beta= 0.20
     Davidson diagonalization with overlap

---- Real-time Memory Report at c_bands before calling an iterative solver
           208 MiB given to the printing process from OS
           129 MiB allocation reported by mallinfo(arena+hblkhd)
         12418 MiB available memory on the node where the printing process lives
------------------
     ethr =  5.30E-07,  avg # of iterations =  1.0

     =================== HUBBARD OCCUPATIONS ===================
     ------------------------ ATOM    1 ------------------------
     Tr[ns(  1)] (up, down, total) =   4.94380  1.47391  6.41771
     Atomic magnetic moment for atom   1 =   3.46989
     SPIN  1
     eigenvalues:
       0.979  0.979  0.995  0.995  0.996
     eigenvectors (columns):
      -0.271  0.948 -0.167  0.001  0.000
       0.095  0.098  0.400 -0.698 -0.577
      -0.133  0.033  0.405  0.696 -0.577
       0.948  0.271  0.001  0.167 -0.000
      -0.038  0.131  0.805 -0.003  0.577
     occupation matrix ns (before diag.):
       0.980 -0.001 -0.001  0.000 -0.002
      -0.001  0.995  0.001 -0.002 -0.001
      -0.001  0.001  0.995  0.002 -0.001
       0.000 -0.002  0.002  0.980 -0.000
      -0.002 -0.001 -0.001 -0.000  0.995
     SPIN  2
     eigenvalues:
       0.180  0.180  0.234  0.440  0.440
     eigenvectors (columns):
       0.016  0.982 -0.000  0.190  0.009
      -0.133  0.080  0.577 -0.366 -0.713
       0.135  0.075  0.577 -0.435  0.673
      -0.982  0.016  0.000 -0.009  0.190
       0.003  0.155 -0.577 -0.801 -0.040
     occupation matrix ns (before diag.):
       0.189 -0.020 -0.020  0.000 -0.040
      -0.020  0.365 -0.065 -0.034  0.065
      -0.020 -0.065  0.365  0.034  0.065
       0.000 -0.034  0.034  0.189 -0.000
      -0.040  0.065  0.065 -0.000  0.365
     ------------------------ ATOM    2 ------------------------
     Tr[ns(  2)] (up, down, total) =   1.47442  4.94375  6.41817
     Atomic magnetic moment for atom   2 =  -3.46933
     SPIN  1
     eigenvalues:
       0.180  0.180  0.234  0.440  0.440
     eigenvectors (columns):
       0.228  0.955 -0.000  0.189  0.019
      -0.113  0.107  0.577 -0.329 -0.731
       0.149  0.044  0.577 -0.469  0.650
      -0.955  0.228  0.000 -0.019  0.189
       0.036  0.151 -0.577 -0.798 -0.081
     occupation matrix ns (before diag.):
       0.189 -0.020 -0.020  0.000 -0.040
      -0.020  0.365 -0.066 -0.034  0.066
      -0.020 -0.066  0.365  0.034  0.066
       0.000 -0.034  0.034  0.189 -0.000
      -0.040  0.066  0.066 -0.000  0.365
     SPIN  2
     eigenvalues:
       0.979  0.979  0.995  0.995  0.996
     eigenvectors (columns):
       0.458  0.873 -0.167  0.007  0.000
      -0.073  0.116  0.431  0.680 -0.577
       0.137  0.005  0.374 -0.713 -0.577
      -0.873  0.458 -0.007 -0.167 -0.000
       0.064  0.121  0.804 -0.033  0.577
     occupation matrix ns (before diag.):
       0.980 -0.001 -0.001  0.000 -0.002
      -0.001  0.995  0.001 -0.002 -0.001
      -0.001  0.001  0.995  0.002 -0.001
       0.000 -0.002  0.002  0.980 -0.000
      -0.002 -0.001 -0.001 -0.000  0.995

     Number of occupied Hubbard levels =   12.8359

     negative rho (up, down):  2.702E-04 2.702E-04

     HUBBARD ENERGY =    0.0000  (Ry)

     total cpu time spent up to now is       85.2 secs

     total energy              =    -741.81582002 Ry
     estimated scf accuracy    <       0.00052099 Ry

     total magnetization       =     0.00 Bohr mag/cell
     absolute magnetization    =     7.16 Bohr mag/cell

     iteration # 19     ecut=    70.00 Ry     beta= 0.20
     Davidson diagonalization with overlap

---- Real-time Memory Report at c_bands before calling an iterative solver
           208 MiB given to the printing process from OS
           129 MiB allocation reported by mallinfo(arena+hblkhd)
         12410 MiB available memory on the node where the printing process lives
------------------
     ethr =  5.30E-07,  avg # of iterations =  3.7

     =================== HUBBARD OCCUPATIONS ===================
     ------------------------ ATOM    1 ------------------------
     Tr[ns(  1)] (up, down, total) =   4.94450  1.46483  6.40933
     Atomic magnetic moment for atom   1 =   3.47967
     SPIN  1
     eigenvalues:
       0.980  0.980  0.995  0.995  0.996
     eigenvectors (columns):
       0.323  0.931 -0.170  0.002  0.000
      -0.091  0.105  0.410  0.692 -0.577
       0.136  0.026  0.394 -0.701 -0.577
      -0.931  0.323 -0.002 -0.170 -0.000
       0.045  0.131  0.805 -0.009  0.577
     occupation matrix ns (before diag.):
       0.980 -0.001 -0.001  0.000 -0.002
      -0.001  0.995  0.001 -0.002 -0.001
      -0.001  0.001  0.995  0.002 -0.001
       0.000 -0.002  0.002  0.980 -0.000
      -0.002 -0.001 -0.001 -0.000  0.995
     SPIN  2
     eigenvalues:
       0.177  0.177  0.228  0.442  0.442
     eigenvectors (columns):
      -0.352  0.916 -0.000  0.190  0.011
       0.097  0.121  0.577 -0.360 -0.716
      -0.153  0.024  0.577 -0.441  0.670
       0.916  0.352  0.000 -0.011  0.190
      -0.056  0.145 -0.577 -0.800 -0.047
     occupation matrix ns (before diag.):
       0.186 -0.020 -0.020  0.000 -0.040
      -0.020  0.364 -0.068 -0.035  0.068
      -0.020 -0.068  0.364  0.035  0.068
       0.000 -0.035  0.035  0.186 -0.000
      -0.040  0.068  0.068 -0.000  0.364
     ------------------------ ATOM    2 ------------------------
     Tr[ns(  2)] (up, down, total) =   1.46494  4.94449  6.40944
     Atomic magnetic moment for atom   2 =  -3.47955
     SPIN  1
     eigenvalues:
       0.177  0.177  0.228  0.442  0.442
     eigenvectors (columns):
       0.521  0.832 -0.000  0.190  0.012
      -0.073  0.137  0.577 -0.357 -0.718
       0.155 -0.006  0.577 -0.443  0.668
      -0.832  0.521  0.000 -0.012  0.190
       0.082  0.131 -0.577 -0.800 -0.050
     occupation matrix ns (before diag.):
       0.186 -0.020 -0.020  0.000 -0.040
      -0.020  0.364 -0.068 -0.035  0.068
      -0.020 -0.068  0.364  0.035  0.068
       0.000 -0.035  0.035  0.186 -0.000
      -0.040  0.068  0.068 -0.000  0.364
     SPIN  2
     eigenvalues:
       0.980  0.980  0.995  0.995  0.996
     eigenvectors (columns):
       0.281  0.945 -0.170  0.001  0.000
      -0.095  0.101  0.408  0.694 -0.577
       0.135  0.032  0.397 -0.700 -0.577
      -0.945  0.281 -0.001 -0.170 -0.000
       0.040  0.133  0.805 -0.006  0.577
     occupation matrix ns (before diag.):
       0.980 -0.001 -0.001  0.000 -0.002
      -0.001  0.995  0.001 -0.002 -0.001
      -0.001  0.001  0.995  0.002 -0.001
       0.000 -0.002  0.002  0.980 -0.000
      -0.002 -0.001 -0.001 -0.000  0.995

     Number of occupied Hubbard levels =   12.8188

     negative rho (up, down):  2.708E-04 2.708E-04

     HUBBARD ENERGY =    0.0000  (Ry)

     total cpu time spent up to now is       89.9 secs

     total energy              =    -741.81589107 Ry
     estimated scf accuracy    <       0.00002159 Ry

     total magnetization       =     0.00 Bohr mag/cell
     absolute magnetization    =     7.17 Bohr mag/cell

     iteration # 20     ecut=    70.00 Ry     beta= 0.20
     Davidson diagonalization with overlap

---- Real-time Memory Report at c_bands before calling an iterative solver
           208 MiB given to the printing process from OS
           129 MiB allocation reported by mallinfo(arena+hblkhd)
         12331 MiB available memory on the node where the printing process lives
------------------
     ethr =  4.91E-08,  avg # of iterations =  5.2

     =================== HUBBARD OCCUPATIONS ===================
     ------------------------ ATOM    1 ------------------------
     Tr[ns(  1)] (up, down, total) =   4.94458  1.46410  6.40868
     Atomic magnetic moment for atom   1 =   3.48048
     SPIN  1
     eigenvalues:
       0.980  0.980  0.995  0.995  0.996
     eigenvectors (columns):
       0.397  0.902 -0.170  0.009  0.000
      -0.082  0.112  0.437  0.676 -0.577
       0.138  0.015  0.367 -0.716 -0.577
      -0.902  0.397 -0.009 -0.170 -0.000
       0.056  0.127  0.804 -0.041  0.577
     occupation matrix ns (before diag.):
       0.980 -0.001 -0.001  0.000 -0.002
      -0.001  0.995  0.001 -0.002 -0.001
      -0.001  0.001  0.995  0.002 -0.001
       0.000 -0.002  0.002  0.980 -0.000
      -0.002 -0.001 -0.001 -0.000  0.995
     SPIN  2
     eigenvalues:
       0.177  0.177  0.227  0.442  0.442
     eigenvectors (columns):
       0.286  0.939 -0.000  0.190  0.009
      -0.106  0.113  0.577 -0.367 -0.713
       0.151  0.035  0.577 -0.434  0.674
      -0.939  0.286  0.000 -0.009  0.190
       0.045  0.149 -0.577 -0.801 -0.039
     occupation matrix ns (before diag.):
       0.186 -0.020 -0.020  0.000 -0.040
      -0.020  0.364 -0.069 -0.035  0.069
      -0.020 -0.069  0.364  0.035  0.069
       0.000 -0.035  0.035  0.186 -0.000
      -0.040  0.069  0.069 -0.000  0.364
     ------------------------ ATOM    2 ------------------------
     Tr[ns(  2)] (up, down, total) =   1.46410  4.94458  6.40868
     Atomic magnetic moment for atom   2 =  -3.48048
     SPIN  1
     eigenvalues:
       0.177  0.177  0.227  0.442  0.442
     eigenvectors (columns):
       0.131  0.973 -0.000  0.190  0.013
      -0.123  0.095  0.577 -0.351 -0.721
       0.144  0.059  0.577 -0.449  0.664
      -0.973  0.131  0.000 -0.013  0.190
       0.021  0.154 -0.577 -0.800 -0.056
     occupation matrix ns (before diag.):
       0.186 -0.020 -0.020  0.000 -0.041
      -0.020  0.364 -0.069 -0.035  0.069
      -0.020 -0.069  0.364  0.035  0.069
       0.000 -0.035  0.035  0.186 -0.000
      -0.041  0.069  0.069 -0.000  0.364
     SPIN  2
     eigenvalues:
       0.980  0.980  0.995  0.995  0.996
     eigenvectors (columns):
       0.132  0.976 -0.170  0.005  0.000
      -0.110  0.085  0.424  0.684 -0.577
       0.129  0.053  0.380 -0.709 -0.577
      -0.976  0.132 -0.005 -0.170 -0.000
       0.019  0.138  0.804 -0.025  0.577
     occupation matrix ns (before diag.):
       0.980 -0.001 -0.001  0.000 -0.002
      -0.001  0.995  0.001 -0.002 -0.001
      -0.001  0.001  0.995  0.002 -0.001
       0.000 -0.002  0.002  0.980 -0.000
      -0.002 -0.001 -0.001 -0.000  0.995

     Number of occupied Hubbard levels =   12.8174

     negative rho (up, down):  2.703E-04 2.703E-04

     HUBBARD ENERGY =    0.0000  (Ry)

     total cpu time spent up to now is       97.7 secs

     total energy              =    -741.81591673 Ry
     estimated scf accuracy    <       0.00002183 Ry

     total magnetization       =     0.00 Bohr mag/cell
     absolute magnetization    =     7.18 Bohr mag/cell

     iteration # 21     ecut=    70.00 Ry     beta= 0.20
     Davidson diagonalization with overlap

---- Real-time Memory Report at c_bands before calling an iterative solver
           208 MiB given to the printing process from OS
           129 MiB allocation reported by mallinfo(arena+hblkhd)
         12291 MiB available memory on the node where the printing process lives
------------------
     ethr =  4.91E-08,  avg # of iterations =  2.0

     =================== HUBBARD OCCUPATIONS ===================
     ------------------------ ATOM    1 ------------------------
     Tr[ns(  1)] (up, down, total) =   4.94443  1.46603  6.41046
     Atomic magnetic moment for atom   1 =   3.47840
     SPIN  1
     eigenvalues:
       0.980  0.980  0.995  0.995  0.996
     eigenvectors (columns):
      -0.153  0.973  0.170  0.002  0.000
       0.108  0.088 -0.394 -0.702 -0.577
      -0.130  0.050 -0.411  0.692 -0.577
       0.973  0.153 -0.002  0.170 -0.000
      -0.022  0.138 -0.804 -0.010  0.577
     occupation matrix ns (before diag.):
       0.980 -0.001 -0.001  0.000 -0.002
      -0.001  0.995  0.001 -0.002 -0.001
      -0.001  0.001  0.995  0.002 -0.001
       0.000 -0.002  0.002  0.980 -0.000
      -0.002 -0.001 -0.001 -0.000  0.995
     SPIN  2
     eigenvalues:
       0.177  0.177  0.227  0.442  0.442
     eigenvectors (columns):
       0.172  0.966 -0.000  0.191  0.007
      -0.119  0.100  0.577 -0.375 -0.708
       0.147  0.053  0.577 -0.426  0.679
      -0.966  0.172  0.000 -0.007  0.191
       0.027  0.153 -0.577 -0.801 -0.029
     occupation matrix ns (before diag.):
       0.187 -0.020 -0.020  0.000 -0.041
      -0.020  0.364 -0.069 -0.035  0.069
      -0.020 -0.069  0.364  0.035  0.069
       0.000 -0.035  0.035  0.187 -0.000
      -0.041  0.069  0.069 -0.000  0.364
     ------------------------ ATOM    2 ------------------------
     Tr[ns(  2)] (up, down, total) =   1.46599  4.94442  6.41042
     Atomic magnetic moment for atom   2 =  -3.47843
     SPIN  1
     eigenvalues:
       0.177  0.177  0.227  0.443  0.443
     eigenvectors (columns):
       0.243  0.951 -0.000  0.190  0.018
      -0.112  0.109  0.577 -0.333 -0.729
       0.150  0.042  0.577 -0.465  0.653
      -0.951  0.243  0.000 -0.018  0.190
       0.039  0.151 -0.577 -0.798 -0.076
     occupation matrix ns (before diag.):
       0.187 -0.020 -0.020  0.000 -0.041
      -0.020  0.364 -0.069 -0.035  0.069
      -0.020 -0.069  0.364  0.035  0.069
       0.000 -0.035  0.035  0.187 -0.000
      -0.041  0.069  0.069 -0.000  0.364
     SPIN  2
     eigenvalues:
       0.980  0.980  0.995  0.995  0.996
     eigenvectors (columns):
       0.273  0.947 -0.170  0.005  0.000
      -0.097  0.100  0.422  0.685 -0.577
       0.135  0.033  0.382 -0.708 -0.577
      -0.947  0.273 -0.005 -0.170 -0.000
       0.039  0.134  0.804 -0.023  0.577
     occupation matrix ns (before diag.):
       0.980 -0.001 -0.001  0.000 -0.002
      -0.001  0.995  0.001 -0.002 -0.001
      -0.001  0.001  0.995  0.002 -0.001
       0.000 -0.002  0.002  0.980 -0.000
      -0.002 -0.001 -0.001 -0.000  0.995

     Number of occupied Hubbard levels =   12.8209

     negative rho (up, down):  2.703E-04 2.703E-04

     HUBBARD ENERGY =    0.0000  (Ry)

     total cpu time spent up to now is      104.0 secs

     total energy              =    -741.81591971 Ry
     estimated scf accuracy    <       0.00000061 Ry

     total magnetization       =    -0.00 Bohr mag/cell
     absolute magnetization    =     7.17 Bohr mag/cell

     iteration # 22     ecut=    70.00 Ry     beta= 0.20
     Davidson diagonalization with overlap

---- Real-time Memory Report at c_bands before calling an iterative solver
           208 MiB given to the printing process from OS
           129 MiB allocation reported by mallinfo(arena+hblkhd)
         12292 MiB available memory on the node where the printing process lives
------------------
     ethr =  1.39E-09,  avg # of iterations =  6.2

     =================== HUBBARD OCCUPATIONS ===================
     ------------------------ ATOM    1 ------------------------
     Tr[ns(  1)] (up, down, total) =   4.94440  1.46642  6.41082
     Atomic magnetic moment for atom   1 =   3.47799
     SPIN  1
     eigenvalues:
       0.980  0.980  0.995  0.995  0.996
     eigenvectors (columns):
       0.069  0.983 -0.170  0.008  0.000
      -0.115  0.078  0.434  0.678 -0.577
       0.125  0.061  0.370 -0.714 -0.577
      -0.983  0.069 -0.008 -0.170 -0.000
       0.010  0.139  0.804 -0.037  0.577
     occupation matrix ns (before diag.):
       0.980 -0.001 -0.001  0.000 -0.002
      -0.001  0.995  0.001 -0.002 -0.001
      -0.001  0.001  0.995  0.002 -0.001
       0.000 -0.002  0.002  0.980 -0.000
      -0.002 -0.001 -0.001 -0.000  0.995
     SPIN  2
     eigenvalues:
       0.177  0.177  0.227  0.443  0.443
     eigenvectors (columns):
       0.149  0.970 -0.000  0.191  0.008
      -0.122  0.098  0.577 -0.372 -0.710
       0.145  0.057  0.577 -0.429  0.677
      -0.970  0.149  0.000 -0.008  0.191
       0.024  0.154 -0.577 -0.801 -0.033
     occupation matrix ns (before diag.):
       0.187 -0.020 -0.020  0.000 -0.041
      -0.020  0.364 -0.069 -0.035  0.069
      -0.020 -0.069  0.364  0.035  0.069
       0.000 -0.035  0.035  0.187 -0.000
      -0.041  0.069  0.069 -0.000  0.364
     ------------------------ ATOM    2 ------------------------
     Tr[ns(  2)] (up, down, total) =   1.46639  4.94440  6.41079
     Atomic magnetic moment for atom   2 =  -3.47800
     SPIN  1
     eigenvalues:
       0.177  0.177  0.227  0.443  0.443
     eigenvectors (columns):
       0.139  0.972 -0.000  0.191  0.011
      -0.123  0.097  0.577 -0.361 -0.716
       0.145  0.058  0.577 -0.440  0.670
      -0.972  0.139  0.000 -0.011  0.191
       0.022  0.155 -0.577 -0.800 -0.046
     occupation matrix ns (before diag.):
       0.187 -0.020 -0.020  0.000 -0.041
      -0.020  0.364 -0.069 -0.035  0.069
      -0.020 -0.069  0.364  0.035  0.069
       0.000 -0.035  0.035  0.187 -0.000
      -0.041  0.069  0.069 -0.000  0.364
     SPIN  2
     eigenvalues:
       0.980  0.980  0.995  0.995  0.996
     eigenvectors (columns):
       0.373  0.912 -0.170  0.003  0.000
      -0.085  0.110  0.416  0.688 -0.577
       0.138  0.019  0.388 -0.705 -0.577
      -0.912  0.373 -0.003 -0.170 -0.000
       0.053  0.129  0.804 -0.016  0.577
     occupation matrix ns (before diag.):
       0.980 -0.001 -0.001  0.000 -0.002
      -0.001  0.995  0.001 -0.002 -0.001
      -0.001  0.001  0.995  0.002 -0.001
       0.000 -0.002  0.002  0.980 -0.000
      -0.002 -0.001 -0.001 -0.000  0.995

     Number of occupied Hubbard levels =   12.8216

     negative rho (up, down):  2.706E-04 2.706E-04

     HUBBARD ENERGY =    0.0000  (Ry)

     total cpu time spent up to now is      113.0 secs

     total energy              =    -741.81592065 Ry
     estimated scf accuracy    <       0.00000218 Ry

     total magnetization       =    -0.00 Bohr mag/cell
     absolute magnetization    =     7.17 Bohr mag/cell

     iteration # 23     ecut=    70.00 Ry     beta= 0.20
     Davidson diagonalization with overlap

---- Real-time Memory Report at c_bands before calling an iterative solver
           208 MiB given to the printing process from OS
           129 MiB allocation reported by mallinfo(arena+hblkhd)
         12573 MiB available memory on the node where the printing process lives
------------------
     ethr =  1.39E-09,  avg # of iterations =  5.0

     =================== HUBBARD OCCUPATIONS ===================
     ------------------------ ATOM    1 ------------------------
     Tr[ns(  1)] (up, down, total) =   4.94446  1.46583  6.41028
     Atomic magnetic moment for atom   1 =   3.47863
     SPIN  1
     eigenvalues:
       0.980  0.980  0.995  0.995  0.996
     eigenvectors (columns):
       0.053  0.984 -0.170  0.002  0.000
      -0.117  0.076  0.411  0.692 -0.577
       0.124  0.063  0.394 -0.702 -0.577
      -0.984  0.053 -0.002 -0.170 -0.000
       0.007  0.139  0.804 -0.010  0.577
     occupation matrix ns (before diag.):
       0.980 -0.001 -0.001  0.000 -0.002
      -0.001  0.995  0.001 -0.002 -0.001
      -0.001  0.001  0.995  0.002 -0.001
       0.000 -0.002  0.002  0.980 -0.000
      -0.002 -0.001 -0.001 -0.000  0.995
     SPIN  2
     eigenvalues:
       0.177  0.177  0.227  0.442  0.442
     eigenvectors (columns):
       0.124  0.974 -0.000  0.191  0.012
      -0.124  0.094  0.577 -0.355 -0.718
       0.144  0.060  0.577 -0.444  0.667
      -0.974  0.124  0.000 -0.012  0.191
       0.020  0.155 -0.577 -0.800 -0.051
     occupation matrix ns (before diag.):
       0.187 -0.020 -0.020  0.000 -0.041
      -0.020  0.364 -0.069 -0.035  0.069
      -0.020 -0.069  0.364  0.035  0.069
       0.000 -0.035  0.035  0.187 -0.000
      -0.041  0.069  0.069 -0.000  0.364
     ------------------------ ATOM    2 ------------------------
     Tr[ns(  2)] (up, down, total) =   1.46583  4.94445  6.41028
     Atomic magnetic moment for atom   2 =  -3.47863
     SPIN  1
     eigenvalues:
       0.177  0.177  0.227  0.443  0.443
     eigenvectors (columns):
       0.047  0.980 -0.000  0.191  0.010
      -0.131  0.084  0.577 -0.363 -0.715
       0.139  0.071  0.577 -0.438  0.671
      -0.980  0.047  0.000 -0.010  0.191
       0.008  0.156 -0.577 -0.800 -0.043
     occupation matrix ns (before diag.):
       0.187 -0.020 -0.020  0.000 -0.041
      -0.020  0.364 -0.069 -0.035  0.069
      -0.020 -0.069  0.364  0.035  0.069
       0.000 -0.035  0.035  0.187 -0.000
      -0.041  0.069  0.069 -0.000  0.364
     SPIN  2
     eigenvalues:
       0.980  0.980  0.995  0.995  0.996
     eigenvectors (columns):
       0.393  0.904 -0.170 -0.000  0.000
      -0.083  0.112  0.402  0.697 -0.577
       0.138  0.016  0.402 -0.697 -0.577
      -0.904  0.393  0.000 -0.170 -0.000
       0.055  0.128  0.805  0.000  0.577
     occupation matrix ns (before diag.):
       0.980 -0.001 -0.001  0.000 -0.002
      -0.001  0.995  0.001 -0.002 -0.001
      -0.001  0.001  0.995  0.002 -0.001
       0.000 -0.002  0.002  0.980 -0.000
      -0.002 -0.001 -0.001 -0.000  0.995

     Number of occupied Hubbard levels =   12.8206

     negative rho (up, down):  2.706E-04 2.706E-04

     HUBBARD ENERGY =    0.0000  (Ry)

     total cpu time spent up to now is      118.7 secs

     total energy              =    -741.81592118 Ry
     estimated scf accuracy    <       0.00000010 Ry

     total magnetization       =     0.00 Bohr mag/cell
     absolute magnetization    =     7.17 Bohr mag/cell

     iteration # 24     ecut=    70.00 Ry     beta= 0.20
     Davidson diagonalization with overlap

---- Real-time Memory Report at c_bands before calling an iterative solver
           208 MiB given to the printing process from OS
           129 MiB allocation reported by mallinfo(arena+hblkhd)
         12536 MiB available memory on the node where the printing process lives
------------------
     ethr =  2.31E-10,  avg # of iterations =  2.4

     =================== HUBBARD OCCUPATIONS ===================
     ------------------------ ATOM    1 ------------------------
     Tr[ns(  1)] (up, down, total) =   4.94446  1.46581  6.41027
     Atomic magnetic moment for atom   1 =   3.47865
     SPIN  1
     eigenvalues:
       0.980  0.980  0.995  0.995  0.996
     eigenvectors (columns):
       0.176  0.970 -0.170 -0.010  0.000
       0.131  0.047  0.444 -0.671 -0.577
      -0.106  0.090  0.359  0.720 -0.577
       0.970 -0.176 -0.010  0.170 -0.000
       0.025  0.137  0.803  0.049  0.577
     occupation matrix ns (before diag.):
       0.980 -0.001 -0.001  0.000 -0.002
      -0.001  0.995  0.001 -0.002 -0.001
      -0.001  0.001  0.995  0.002 -0.001
       0.000 -0.002  0.002  0.980 -0.000
      -0.002 -0.001 -0.001 -0.000  0.995
     SPIN  2
     eigenvalues:
       0.177  0.177  0.227  0.443  0.443
     eigenvectors (columns):
       0.263  0.946 -0.000  0.190  0.016
      -0.109  0.111  0.577 -0.341 -0.725
       0.151  0.039  0.577 -0.457  0.658
      -0.946  0.263  0.000 -0.016  0.190
       0.042  0.150 -0.577 -0.799 -0.067
     occupation matrix ns (before diag.):
       0.187 -0.020 -0.020  0.000 -0.041
      -0.020  0.364 -0.069 -0.035  0.069
      -0.020 -0.069  0.364  0.035  0.069
       0.000 -0.035  0.035  0.187 -0.000
      -0.041  0.069  0.069 -0.000  0.364
     ------------------------ ATOM    2 ------------------------
     Tr[ns(  2)] (up, down, total) =   1.46580  4.94446  6.41026
     Atomic magnetic moment for atom   2 =  -3.47866
     SPIN  1
     eigenvalues:
       0.177  0.177  0.226  0.443  0.443
     eigenvectors (columns):
       0.282  0.940 -0.000  0.191  0.012
      -0.107  0.113  0.577 -0.358 -0.717
       0.152  0.036  0.577 -0.442  0.668
      -0.940  0.282  0.000 -0.012  0.191
       0.045  0.149 -0.577 -0.800 -0.049
     occupation matrix ns (before diag.):
       0.187 -0.020 -0.020  0.000 -0.041
      -0.020  0.364 -0.069 -0.035  0.069
      -0.020 -0.069  0.364  0.035  0.069
       0.000 -0.035  0.035  0.187 -0.000
      -0.041  0.069  0.069 -0.000  0.364
     SPIN  2
     eigenvalues:
       0.980  0.980  0.995  0.995  0.996
     eigenvectors (columns):
      -0.086  0.982 -0.170 -0.002  0.000
      -0.126  0.059  0.396  0.700 -0.577
       0.114  0.080  0.409 -0.693 -0.577
      -0.982 -0.086  0.002 -0.170 -0.000
      -0.012  0.139  0.805  0.007  0.577
     occupation matrix ns (before diag.):
       0.980 -0.001 -0.001  0.000 -0.002
      -0.001  0.995  0.001 -0.002 -0.001
      -0.001  0.001  0.995  0.002 -0.001
       0.000 -0.002  0.002  0.980 -0.000
      -0.002 -0.001 -0.001 -0.000  0.995

     Number of occupied Hubbard levels =   12.8205

     negative rho (up, down):  2.705E-04 2.705E-04

     HUBBARD ENERGY =    0.0000  (Ry)

     total cpu time spent up to now is      123.0 secs

     total energy              =    -741.81592119 Ry
     estimated scf accuracy    <       0.00000007 Ry

     total magnetization       =    -0.00 Bohr mag/cell
     absolute magnetization    =     7.17 Bohr mag/cell

     iteration # 25     ecut=    70.00 Ry     beta= 0.20
     Davidson diagonalization with overlap

---- Real-time Memory Report at c_bands before calling an iterative solver
           208 MiB given to the printing process from OS
           129 MiB allocation reported by mallinfo(arena+hblkhd)
         12402 MiB available memory on the node where the printing process lives
------------------
     ethr =  1.54E-10,  avg # of iterations =  2.0

     =================== HUBBARD OCCUPATIONS ===================
     ------------------------ ATOM    1 ------------------------
     Tr[ns(  1)] (up, down, total) =   4.94446  1.46581  6.41027
     Atomic magnetic moment for atom   1 =   3.47865
     SPIN  1
     eigenvalues:
       0.980  0.980  0.995  0.995  0.996
     eigenvectors (columns):
       0.163  0.972 -0.170  0.002  0.000
      -0.107  0.089  0.410  0.692 -0.577
       0.130  0.049  0.395 -0.701 -0.577
      -0.972  0.163 -0.002 -0.170 -0.000
       0.023  0.137  0.805 -0.009  0.577
     occupation matrix ns (before diag.):
       0.980 -0.001 -0.001  0.000 -0.002
      -0.001  0.995  0.001 -0.002 -0.001
      -0.001  0.001  0.995  0.002 -0.001
       0.000 -0.002  0.002  0.980 -0.000
      -0.002 -0.001 -0.001 -0.000  0.995
     SPIN  2
     eigenvalues:
       0.177  0.177  0.227  0.443  0.443
     eigenvectors (columns):
       0.352  0.916 -0.000  0.191  0.011
      -0.098  0.121  0.577 -0.359 -0.716
       0.154  0.024  0.577 -0.441  0.669
      -0.916  0.352  0.000 -0.011  0.191
       0.056  0.146 -0.577 -0.800 -0.047
     occupation matrix ns (before diag.):
       0.187 -0.020 -0.020  0.000 -0.041
      -0.020  0.364 -0.069 -0.035  0.069
      -0.020 -0.069  0.364  0.035  0.069
       0.000 -0.035  0.035  0.187 -0.000
      -0.041  0.069  0.069 -0.000  0.364
     ------------------------ ATOM    2 ------------------------
     Tr[ns(  2)] (up, down, total) =   1.46583  4.94446  6.41029
     Atomic magnetic moment for atom   2 =  -3.47863
     SPIN  1
     eigenvalues:
       0.177  0.177  0.226  0.443  0.443
     eigenvectors (columns):
       0.336  0.922 -0.000  0.190  0.017
      -0.100  0.120  0.577 -0.338 -0.727
       0.154  0.027  0.577 -0.461  0.656
      -0.922  0.336  0.000 -0.017  0.190
       0.053  0.147 -0.577 -0.798 -0.071
     occupation matrix ns (before diag.):
       0.187 -0.020 -0.020  0.000 -0.041
      -0.020  0.364 -0.069 -0.035  0.069
      -0.020 -0.069  0.364  0.035  0.069
       0.000 -0.035  0.035  0.187 -0.000
      -0.041  0.069  0.069 -0.000  0.364
     SPIN  2
     eigenvalues:
       0.980  0.980  0.995  0.995  0.996
     eigenvectors (columns):
       0.297  0.939 -0.170  0.005  0.000
      -0.094  0.103  0.423  0.685 -0.577
       0.136  0.030  0.381 -0.708 -0.577
      -0.939  0.297 -0.005 -0.170 -0.000
       0.042  0.133  0.804 -0.024  0.577
     occupation matrix ns (before diag.):
       0.980 -0.001 -0.001  0.000 -0.002
      -0.001  0.995  0.001 -0.002 -0.001
      -0.001  0.001  0.995  0.002 -0.001
       0.000 -0.002  0.002  0.980 -0.000
      -0.002 -0.001 -0.001 -0.000  0.995

     Number of occupied Hubbard levels =   12.8206

     negative rho (up, down):  2.704E-04 2.704E-04

     HUBBARD ENERGY =    0.0000  (Ry)

     total cpu time spent up to now is      128.0 secs

     total energy              =    -741.81592120 Ry
     estimated scf accuracy    <       0.00000009 Ry

     total magnetization       =     0.00 Bohr mag/cell
     absolute magnetization    =     7.17 Bohr mag/cell

     iteration # 26     ecut=    70.00 Ry     beta= 0.20
     Davidson diagonalization with overlap

---- Real-time Memory Report at c_bands before calling an iterative solver
           208 MiB given to the printing process from OS
           129 MiB allocation reported by mallinfo(arena+hblkhd)
         12494 MiB available memory on the node where the printing process lives
------------------
     ethr =  1.54E-10,  avg # of iterations =  1.1

     =================== HUBBARD OCCUPATIONS ===================
     ------------------------ ATOM    1 ------------------------
     Tr[ns(  1)] (up, down, total) =   4.94446  1.46584  6.41030
     Atomic magnetic moment for atom   1 =   3.47861
     SPIN  1
     eigenvalues:
       0.980  0.980  0.995  0.995  0.996
     eigenvectors (columns):
       0.067  0.983 -0.170  0.003  0.000
      -0.116  0.078  0.414  0.690 -0.577
       0.125  0.061  0.391 -0.703 -0.577
      -0.983  0.067 -0.003 -0.170 -0.000
       0.009  0.139  0.804 -0.013  0.577
     occupation matrix ns (before diag.):
       0.980 -0.001 -0.001  0.000 -0.002
      -0.001  0.995  0.001 -0.002 -0.001
      -0.001  0.001  0.995  0.002 -0.001
       0.000 -0.002  0.002  0.980 -0.000
      -0.002 -0.001 -0.001 -0.000  0.995
     SPIN  2
     eigenvalues:
       0.177  0.177  0.226  0.443  0.443
     eigenvectors (columns):
       0.446  0.874 -0.000  0.191  0.012
      -0.085  0.131  0.577 -0.357 -0.718
       0.156  0.008  0.577 -0.443  0.668
      -0.874  0.446  0.000 -0.012  0.191
       0.071  0.139 -0.577 -0.800 -0.050
     occupation matrix ns (before diag.):
       0.187 -0.020 -0.020  0.000 -0.041
      -0.020  0.364 -0.069 -0.035  0.069
      -0.020 -0.069  0.364  0.035  0.069
       0.000 -0.035  0.035  0.187 -0.000
      -0.041  0.069  0.069 -0.000  0.364
     ------------------------ ATOM    2 ------------------------
     Tr[ns(  2)] (up, down, total) =   1.46584  4.94446  6.41030
     Atomic magnetic moment for atom   2 =  -3.47861
     SPIN  1
     eigenvalues:
       0.177  0.177  0.226  0.443  0.443
     eigenvectors (columns):
       0.095  0.977 -0.000  0.191  0.013
      -0.127  0.091  0.577 -0.353 -0.719
       0.142  0.065  0.577 -0.446  0.666
      -0.977  0.095  0.000 -0.013  0.191
       0.015  0.155 -0.577 -0.800 -0.054
     occupation matrix ns (before diag.):
       0.187 -0.020 -0.020  0.000 -0.041
      -0.020  0.364 -0.069 -0.035  0.069
      -0.020 -0.069  0.364  0.035  0.069
       0.000 -0.035  0.035  0.187 -0.000
      -0.041  0.069  0.069 -0.000  0.364
     SPIN  2
     eigenvalues:
       0.980  0.980  0.995  0.995  0.996
     eigenvectors (columns):
      -0.005  0.985 -0.170  0.003  0.000
      -0.121  0.069  0.388 -0.705 -0.577
       0.120  0.070  0.416  0.688 -0.577
      -0.985 -0.005  0.003  0.170 -0.000
      -0.001  0.139  0.804 -0.016  0.577
     occupation matrix ns (before diag.):
       0.980 -0.001 -0.001  0.000 -0.002
      -0.001  0.995  0.001 -0.002 -0.001
      -0.001  0.001  0.995  0.002 -0.001
       0.000 -0.002  0.002  0.980 -0.000
      -0.002 -0.001 -0.001 -0.000  0.995

     Number of occupied Hubbard levels =   12.8206

     negative rho (up, down):  2.704E-04 2.704E-04

     HUBBARD ENERGY =    0.0000  (Ry)

     total cpu time spent up to now is      132.4 secs

     total energy              =    -741.81592119 Ry
     estimated scf accuracy    <       0.00000006 Ry

     total magnetization       =     0.00 Bohr mag/cell
     absolute magnetization    =     7.17 Bohr mag/cell

     iteration # 27     ecut=    70.00 Ry     beta= 0.20
     Davidson diagonalization with overlap

---- Real-time Memory Report at c_bands before calling an iterative solver
           208 MiB given to the printing process from OS
           129 MiB allocation reported by mallinfo(arena+hblkhd)
         12422 MiB available memory on the node where the printing process lives
------------------
     ethr =  1.45E-10,  avg # of iterations =  1.2

     =================== HUBBARD OCCUPATIONS ===================
     ------------------------ ATOM    1 ------------------------
     Tr[ns(  1)] (up, down, total) =   4.94445  1.46585  6.41030
     Atomic magnetic moment for atom   1 =   3.47860
     SPIN  1
     eigenvalues:
       0.980  0.980  0.995  0.995  0.996
     eigenvectors (columns):
       0.112  0.979 -0.170  0.005  0.000
      -0.112  0.083  0.422  0.685 -0.577
       0.128  0.055  0.383 -0.708 -0.577
      -0.979  0.112 -0.005 -0.170 -0.000
       0.016  0.138  0.804 -0.023  0.577
     occupation matrix ns (before diag.):
       0.980 -0.001 -0.001  0.000 -0.002
      -0.001  0.995  0.001 -0.002 -0.001
      -0.001  0.001  0.995  0.002 -0.001
       0.000 -0.002  0.002  0.980 -0.000
      -0.002 -0.001 -0.001 -0.000  0.995
     SPIN  2
     eigenvalues:
       0.177  0.177  0.226  0.443  0.443
     eigenvectors (columns):
       0.266  0.945 -0.000  0.191  0.013
      -0.109  0.112  0.577 -0.351 -0.721
       0.151  0.038  0.577 -0.449  0.664
      -0.945  0.266  0.000 -0.013  0.191
       0.042  0.150 -0.577 -0.799 -0.056
     occupation matrix ns (before diag.):
       0.187 -0.020 -0.020  0.000 -0.041
      -0.020  0.364 -0.069 -0.035  0.069
      -0.020 -0.069  0.364  0.035  0.069
       0.000 -0.035  0.035  0.187 -0.000
      -0.041  0.069  0.069 -0.000  0.364
     ------------------------ ATOM    2 ------------------------
     Tr[ns(  2)] (up, down, total) =   1.46585  4.94445  6.41030
     Atomic magnetic moment for atom   2 =  -3.47861
     SPIN  1
     eigenvalues:
       0.177  0.177  0.226  0.443  0.443
     eigenvectors (columns):
      -0.477  0.858 -0.000  0.190  0.016
       0.080  0.134  0.577 -0.340 -0.726
      -0.156  0.003  0.577 -0.458  0.658
       0.858  0.477  0.000 -0.016  0.190
      -0.076  0.136 -0.577 -0.799 -0.068
     occupation matrix ns (before diag.):
       0.187 -0.020 -0.020  0.000 -0.041
      -0.020  0.364 -0.069 -0.035  0.069
      -0.020 -0.069  0.364  0.035  0.069
       0.000 -0.035  0.035  0.187 -0.000
      -0.041  0.069  0.069 -0.000  0.364
     SPIN  2
     eigenvalues:
       0.980  0.980  0.995  0.995  0.996
     eigenvectors (columns):
       0.428  0.888 -0.170  0.001  0.000
      -0.078  0.115  0.408  0.694 -0.577
       0.139  0.010  0.397 -0.700 -0.577
      -0.888  0.428 -0.001 -0.170 -0.000
       0.060  0.125  0.805 -0.006  0.577
     occupation matrix ns (before diag.):
       0.980 -0.001 -0.001  0.000 -0.002
      -0.001  0.995  0.001 -0.002 -0.001
      -0.001  0.001  0.995  0.002 -0.001
       0.000 -0.002  0.002  0.980 -0.000
      -0.002 -0.001 -0.001 -0.000  0.995

     Number of occupied Hubbard levels =   12.8206

     negative rho (up, down):  2.703E-04 2.703E-04

     HUBBARD ENERGY =    0.0000  (Ry)

     total cpu time spent up to now is      136.7 secs

     total energy              =    -741.81592118 Ry
     estimated scf accuracy    <       0.00000004 Ry

     total magnetization       =    -0.00 Bohr mag/cell
     absolute magnetization    =     7.17 Bohr mag/cell

     iteration # 28     ecut=    70.00 Ry     beta= 0.20
     Davidson diagonalization with overlap

---- Real-time Memory Report at c_bands before calling an iterative solver
           208 MiB given to the printing process from OS
           129 MiB allocation reported by mallinfo(arena+hblkhd)
         12448 MiB available memory on the node where the printing process lives
------------------
     ethr =  9.42E-11,  avg # of iterations =  2.0

     =================== HUBBARD OCCUPATIONS ===================
     ------------------------ ATOM    1 ------------------------
     Tr[ns(  1)] (up, down, total) =   4.94445  1.46590  6.41035
     Atomic magnetic moment for atom   1 =   3.47855
     SPIN  1
     eigenvalues:
       0.980  0.980  0.995  0.995  0.996
     eigenvectors (columns):
       0.246  0.954 -0.170  0.010  0.000
      -0.099  0.097  0.441  0.673 -0.577
       0.134  0.037  0.362 -0.718 -0.577
      -0.954  0.246 -0.010 -0.170 -0.000
       0.035  0.135  0.803 -0.045  0.577
     occupation matrix ns (before diag.):
       0.980 -0.001 -0.001  0.000 -0.002
      -0.001  0.995  0.001 -0.002 -0.001
      -0.001  0.001  0.995  0.002 -0.001
       0.000 -0.002  0.002  0.980 -0.000
      -0.002 -0.001 -0.001 -0.000  0.995
     SPIN  2
     eigenvalues:
       0.177  0.177  0.226  0.443  0.443
     eigenvectors (columns):
       0.241  0.952 -0.000  0.191  0.015
      -0.112  0.109  0.577 -0.347 -0.723
       0.150  0.042  0.577 -0.452  0.662
      -0.952  0.241  0.000 -0.015  0.191
       0.038  0.151 -0.577 -0.799 -0.061
     occupation matrix ns (before diag.):
       0.187 -0.020 -0.020  0.000 -0.041
      -0.020  0.364 -0.069 -0.035  0.069
      -0.020 -0.069  0.364  0.035  0.069
       0.000 -0.035  0.035  0.187 -0.000
      -0.041  0.069  0.069 -0.000  0.364
     ------------------------ ATOM    2 ------------------------
     Tr[ns(  2)] (up, down, total) =   1.46590  4.94445  6.41035
     Atomic magnetic moment for atom   2 =  -3.47855
     SPIN  1
     eigenvalues:
       0.177  0.177  0.226  0.443  0.443
     eigenvectors (columns):
       0.204  0.960 -0.000  0.191  0.009
      -0.116  0.104  0.577 -0.366 -0.713
       0.148  0.048  0.577 -0.435  0.673
      -0.960  0.204  0.000 -0.009  0.191
       0.032  0.153 -0.577 -0.800 -0.040
     occupation matrix ns (before diag.):
       0.187 -0.020 -0.020  0.000 -0.041
      -0.020  0.364 -0.069 -0.035  0.069
      -0.020 -0.069  0.364  0.035  0.069
       0.000 -0.035  0.035  0.187 -0.000
      -0.041  0.069  0.069 -0.000  0.364
     SPIN  2
     eigenvalues:
       0.980  0.980  0.995  0.995  0.996
     eigenvectors (columns):
      -0.191  0.967 -0.170  0.001  0.000
       0.105  0.092  0.399 -0.699 -0.577
      -0.132  0.045  0.406  0.695 -0.577
       0.967  0.191  0.001  0.170 -0.000
      -0.027  0.137  0.805 -0.004  0.577
     occupation matrix ns (before diag.):
       0.980 -0.001 -0.001  0.000 -0.002
      -0.001  0.995  0.001 -0.002 -0.001
      -0.001  0.001  0.995  0.002 -0.001
       0.000 -0.002  0.002  0.980 -0.000
      -0.002 -0.001 -0.001 -0.000  0.995

     Number of occupied Hubbard levels =   12.8207

     negative rho (up, down):  2.703E-04 2.703E-04

     HUBBARD ENERGY =    0.0000  (Ry)

     total cpu time spent up to now is      140.8 secs

     total energy              =    -741.81592119 Ry
     estimated scf accuracy    <          5.4E-09 Ry

     total magnetization       =     0.00 Bohr mag/cell
     absolute magnetization    =     7.17 Bohr mag/cell

     iteration # 29     ecut=    70.00 Ry     beta= 0.20
     Davidson diagonalization with overlap

---- Real-time Memory Report at c_bands before calling an iterative solver
           208 MiB given to the printing process from OS
           129 MiB allocation reported by mallinfo(arena+hblkhd)
         12334 MiB available memory on the node where the printing process lives
------------------
     ethr =  1.23E-11,  avg # of iterations =  5.3

     =================== HUBBARD OCCUPATIONS ===================
     ------------------------ ATOM    1 ------------------------
     Tr[ns(  1)] (up, down, total) =   4.94445  1.46591  6.41036
     Atomic magnetic moment for atom   1 =   3.47854
     SPIN  1
     eigenvalues:
       0.980  0.980  0.995  0.995  0.996
     eigenvectors (columns):
       0.027  0.985 -0.170  0.000  0.000
      -0.119  0.073  0.403  0.697 -0.577
       0.122  0.066  0.402 -0.697 -0.577
      -0.985  0.027 -0.000 -0.170 -0.000
       0.004  0.139  0.805 -0.000  0.577
     occupation matrix ns (before diag.):
       0.980 -0.001 -0.001  0.000 -0.002
      -0.001  0.995  0.001 -0.002 -0.001
      -0.001  0.001  0.995  0.002 -0.001
       0.000 -0.002  0.002  0.980 -0.000
      -0.002 -0.001 -0.001 -0.000  0.995
     SPIN  2
     eigenvalues:
       0.177  0.177  0.226  0.443  0.443
     eigenvectors (columns):
      -0.359  0.914 -0.000  0.191  0.010
       0.097  0.122  0.577 -0.364 -0.714
      -0.154  0.023  0.577 -0.436  0.672
       0.914  0.359  0.000 -0.010  0.191
      -0.057  0.145 -0.577 -0.800 -0.042
     occupation matrix ns (before diag.):
       0.187 -0.020 -0.020  0.000 -0.041
      -0.020  0.364 -0.069 -0.035  0.069
      -0.020 -0.069  0.364  0.035  0.069
       0.000 -0.035  0.035  0.187 -0.000
      -0.041  0.069  0.069 -0.000  0.364
     ------------------------ ATOM    2 ------------------------
     Tr[ns(  2)] (up, down, total) =   1.46591  4.94445  6.41036
     Atomic magnetic moment for atom   2 =  -3.47854
     SPIN  1
     eigenvalues:
       0.177  0.177  0.226  0.443  0.443
     eigenvectors (columns):
       0.095  0.977 -0.000  0.191  0.009
      -0.127  0.091  0.577 -0.369 -0.712
       0.142  0.065  0.577 -0.432  0.675
      -0.977  0.095  0.000 -0.009  0.191
       0.015  0.155 -0.577 -0.801 -0.037
     occupation matrix ns (before diag.):
       0.187 -0.020 -0.020  0.000 -0.041
      -0.020  0.364 -0.069 -0.035  0.069
      -0.020 -0.069  0.364  0.035  0.069
       0.000 -0.035  0.035  0.187 -0.000
      -0.041  0.069  0.069 -0.000  0.364
     SPIN  2
     eigenvalues:
       0.980  0.980  0.995  0.995  0.996
     eigenvectors (columns):
      -0.322  0.931  0.170  0.004  0.000
       0.091  0.105 -0.385 -0.707 -0.577
      -0.137  0.026 -0.419  0.687 -0.577
       0.931  0.322 -0.004  0.170 -0.000
      -0.045  0.132 -0.804 -0.020  0.577
     occupation matrix ns (before diag.):
       0.980 -0.001 -0.001  0.000 -0.002
      -0.001  0.995  0.001 -0.002 -0.001
      -0.001  0.001  0.995  0.002 -0.001
       0.000 -0.002  0.002  0.980 -0.000
      -0.002 -0.001 -0.001 -0.000  0.995

     Number of occupied Hubbard levels =   12.8207

     negative rho (up, down):  2.703E-04 2.703E-04

     HUBBARD ENERGY =    0.0000  (Ry)

     total cpu time spent up to now is      146.3 secs

     total energy              =    -741.81592119 Ry
     estimated scf accuracy    <          1.4E-10 Ry

     total magnetization       =     0.00 Bohr mag/cell
     absolute magnetization    =     7.17 Bohr mag/cell

     iteration # 30     ecut=    70.00 Ry     beta= 0.20
     Davidson diagonalization with overlap

---- Real-time Memory Report at c_bands before calling an iterative solver
           208 MiB given to the printing process from OS
           129 MiB allocation reported by mallinfo(arena+hblkhd)
         12362 MiB available memory on the node where the printing process lives
------------------
     ethr =  3.21E-13,  avg # of iterations =  6.2

     =================== HUBBARD OCCUPATIONS ===================
     ------------------------ ATOM    1 ------------------------
     Tr[ns(  1)] (up, down, total) =   4.94445  1.46591  6.41035
     Atomic magnetic moment for atom   1 =   3.47854
     SPIN  1
     eigenvalues:
       0.980  0.980  0.995  0.995  0.996
     eigenvectors (columns):
       0.054  0.984 -0.170 -0.002  0.000
       0.124  0.063  0.412 -0.691 -0.577
      -0.117  0.076  0.392  0.703 -0.577
       0.984 -0.054 -0.002  0.170 -0.000
       0.008  0.139  0.804  0.012  0.577
     occupation matrix ns (before diag.):
       0.980 -0.001 -0.001  0.000 -0.002
      -0.001  0.995  0.001 -0.002 -0.001
      -0.001  0.001  0.995  0.002 -0.001
       0.000 -0.002  0.002  0.980 -0.000
      -0.002 -0.001 -0.001 -0.000  0.995
     SPIN  2
     eigenvalues:
       0.177  0.177  0.226  0.443  0.443
     eigenvectors (columns):
       0.289  0.938 -0.000  0.191  0.011
      -0.106  0.114  0.577 -0.360 -0.716
       0.152  0.035  0.577 -0.440  0.670
      -0.938  0.289  0.000 -0.011  0.191
       0.046  0.149 -0.577 -0.800 -0.046
     occupation matrix ns (before diag.):
       0.187 -0.020 -0.020  0.000 -0.041
      -0.020  0.364 -0.069 -0.035  0.069
      -0.020 -0.069  0.364  0.035  0.069
       0.000 -0.035  0.035  0.187 -0.000
      -0.041  0.069  0.069 -0.000  0.364
     ------------------------ ATOM    2 ------------------------
     Tr[ns(  2)] (up, down, total) =   1.46591  4.94445  6.41036
     Atomic magnetic moment for atom   2 =  -3.47854
     SPIN  1
     eigenvalues:
       0.177  0.177  0.226  0.443  0.443
     eigenvectors (columns):
       0.160  0.968 -0.000  0.191  0.014
      -0.121  0.099  0.577 -0.349 -0.722
       0.146  0.055  0.577 -0.450  0.663
      -0.968  0.160  0.000 -0.014  0.191
       0.025  0.154 -0.577 -0.799 -0.059
     occupation matrix ns (before diag.):
       0.187 -0.020 -0.020  0.000 -0.041
      -0.020  0.364 -0.069 -0.035  0.069
      -0.020 -0.069  0.364  0.035  0.069
       0.000 -0.035  0.035  0.187 -0.000
      -0.041  0.069  0.069 -0.000  0.364
     SPIN  2
     eigenvalues:
       0.980  0.980  0.995  0.995  0.996
     eigenvectors (columns):
       0.450  0.877 -0.170  0.003  0.000
      -0.075  0.117  0.414  0.690 -0.577
       0.139  0.007  0.391 -0.703 -0.577
      -0.877  0.450 -0.003 -0.170 -0.000
       0.064  0.124  0.804 -0.013  0.577
     occupation matrix ns (before diag.):
       0.980 -0.001 -0.001  0.000 -0.002
      -0.001  0.995  0.001 -0.002 -0.001
      -0.001  0.001  0.995  0.002 -0.001
       0.000 -0.002  0.002  0.980 -0.000
      -0.002 -0.001 -0.001 -0.000  0.995

     Number of occupied Hubbard levels =   12.8207

     negative rho (up, down):  2.703E-04 2.703E-04

     HUBBARD ENERGY =    0.0000  (Ry)

     total cpu time spent up to now is      153.0 secs

     total energy              =    -741.81592119 Ry
     estimated scf accuracy    <          7.8E-10 Ry

     total magnetization       =     0.00 Bohr mag/cell
     absolute magnetization    =     7.17 Bohr mag/cell

     iteration # 31     ecut=    70.00 Ry     beta= 0.20
     Davidson diagonalization with overlap

---- Real-time Memory Report at c_bands before calling an iterative solver
           208 MiB given to the printing process from OS
           129 MiB allocation reported by mallinfo(arena+hblkhd)
         12368 MiB available memory on the node where the printing process lives
------------------
     ethr =  3.21E-13,  avg # of iterations =  5.0

     =================== HUBBARD OCCUPATIONS ===================
     ------------------------ ATOM    1 ------------------------
     Tr[ns(  1)] (up, down, total) =   4.94445  1.46590  6.41034
     Atomic magnetic moment for atom   1 =   3.47855
     SPIN  1
     eigenvalues:
       0.980  0.980  0.995  0.995  0.996
     eigenvectors (columns):
       0.000 -0.985  0.170 -0.000  0.000
      -0.121 -0.070 -0.402  0.697 -0.577
       0.121 -0.070 -0.402 -0.697 -0.577
      -0.985 -0.000  0.000 -0.170 -0.000
       0.000 -0.139 -0.805 -0.000  0.577
     occupation matrix ns (before diag.):
       0.980 -0.001 -0.001  0.000 -0.002
      -0.001  0.995  0.001 -0.002 -0.001
      -0.001  0.001  0.995  0.002 -0.001
       0.000 -0.002  0.002  0.980 -0.000
      -0.002 -0.001 -0.001 -0.000  0.995
     SPIN  2
     eigenvalues:
       0.177  0.177  0.226  0.443  0.443
     eigenvectors (columns):
       0.307  0.932 -0.000  0.190  0.017
      -0.104  0.116  0.577 -0.337 -0.727
       0.153  0.032  0.577 -0.461  0.656
      -0.932  0.307  0.000 -0.017  0.190
       0.049  0.148 -0.577 -0.798 -0.072
     occupation matrix ns (before diag.):
       0.187 -0.020 -0.020  0.000 -0.041
      -0.020  0.364 -0.069 -0.035  0.069
      -0.020 -0.069  0.364  0.035  0.069
       0.000 -0.035  0.035  0.187 -0.000
      -0.041  0.069  0.069 -0.000  0.364
     ------------------------ ATOM    2 ------------------------
     Tr[ns(  2)] (up, down, total) =   1.46590  4.94445  6.41034
     Atomic magnetic moment for atom   2 =  -3.47855
     SPIN  1
     eigenvalues:
       0.177  0.177  0.226  0.443  0.443
     eigenvectors (columns):
       0.339  0.921 -0.000  0.190  0.016
      -0.100  0.120  0.577 -0.342 -0.725
       0.154  0.027  0.577 -0.457  0.659
      -0.921  0.339  0.000 -0.016  0.190
       0.054  0.146 -0.577 -0.799 -0.066
     occupation matrix ns (before diag.):
       0.187 -0.020 -0.020  0.000 -0.041
      -0.020  0.364 -0.069 -0.035  0.069
      -0.020 -0.069  0.364  0.035  0.069
       0.000 -0.035  0.035  0.187 -0.000
      -0.041  0.069  0.069 -0.000  0.364
     SPIN  2
     eigenvalues:
       0.980  0.980  0.995  0.995  0.996
     eigenvectors (columns):
       0.190  0.967 -0.170  0.001  0.000
      -0.105  0.091  0.408  0.693 -0.577
       0.132  0.045  0.396 -0.700 -0.577
      -0.967  0.190 -0.001 -0.170 -0.000
       0.027  0.137  0.805 -0.007  0.577
     occupation matrix ns (before diag.):
       0.980 -0.001 -0.001  0.000 -0.002
      -0.001  0.995  0.001 -0.002 -0.001
      -0.001  0.001  0.995  0.002 -0.001
       0.000 -0.002  0.002  0.980 -0.000
      -0.002 -0.001 -0.001 -0.000  0.995

     Number of occupied Hubbard levels =   12.8207

     negative rho (up, down):  2.704E-04 2.704E-04

     HUBBARD ENERGY =    0.0000  (Ry)

     total cpu time spent up to now is      160.1 secs

     total energy              =    -741.81592119 Ry
     estimated scf accuracy    <          3.1E-09 Ry

     total magnetization       =     0.00 Bohr mag/cell
     absolute magnetization    =     7.17 Bohr mag/cell

     iteration # 32     ecut=    70.00 Ry     beta= 0.20
     Davidson diagonalization with overlap

---- Real-time Memory Report at c_bands before calling an iterative solver
           208 MiB given to the printing process from OS
           129 MiB allocation reported by mallinfo(arena+hblkhd)
         12354 MiB available memory on the node where the printing process lives
------------------
     ethr =  3.21E-13,  avg # of iterations =  2.0

     =================== HUBBARD OCCUPATIONS ===================
     ------------------------ ATOM    1 ------------------------
     Tr[ns(  1)] (up, down, total) =   4.94445  1.46590  6.41035
     Atomic magnetic moment for atom   1 =   3.47855
     SPIN  1
     eigenvalues:
       0.980  0.980  0.995  0.995  0.996
     eigenvectors (columns):
       0.231  0.958 -0.170  0.009  0.000
      -0.101  0.096  0.439  0.674 -0.577
       0.133  0.039  0.364 -0.718 -0.577
      -0.958  0.231 -0.009 -0.170 -0.000
       0.033  0.135  0.803 -0.044  0.577
     occupation matrix ns (before diag.):
       0.980 -0.001 -0.001  0.000 -0.002
      -0.001  0.995  0.001 -0.002 -0.001
      -0.001  0.001  0.995  0.002 -0.001
       0.000 -0.002  0.002  0.980 -0.000
      -0.002 -0.001 -0.001 -0.000  0.995
     SPIN  2
     eigenvalues:
       0.177  0.177  0.226  0.443  0.443
     eigenvectors (columns):
       0.227  0.955 -0.000  0.191  0.011
      -0.113  0.107  0.577 -0.359 -0.717
       0.149  0.045  0.577 -0.441  0.669
      -0.955  0.227  0.000 -0.011  0.191
       0.036  0.152 -0.577 -0.800 -0.047
     occupation matrix ns (before diag.):
       0.187 -0.020 -0.020  0.000 -0.041
      -0.020  0.364 -0.069 -0.035  0.069
      -0.020 -0.069  0.364  0.035  0.069
       0.000 -0.035  0.035  0.187 -0.000
      -0.041  0.069  0.069 -0.000  0.364
     ------------------------ ATOM    2 ------------------------
     Tr[ns(  2)] (up, down, total) =   1.46590  4.94445  6.41035
     Atomic magnetic moment for atom   2 =  -3.47855
     SPIN  1
     eigenvalues:
       0.177  0.177  0.226  0.443  0.443
     eigenvectors (columns):
       0.196  0.962 -0.000  0.191  0.011
      -0.117  0.103  0.577 -0.360 -0.716
       0.148  0.049  0.577 -0.440  0.670
      -0.962  0.196  0.000 -0.011  0.191
       0.031  0.153 -0.577 -0.800 -0.047
     occupation matrix ns (before diag.):
       0.187 -0.020 -0.020  0.000 -0.041
      -0.020  0.364 -0.069 -0.035  0.069
      -0.020 -0.069  0.364  0.035  0.069
       0.000 -0.035  0.035  0.187 -0.000
      -0.041  0.069  0.069 -0.000  0.364
     SPIN  2
     eigenvalues:
       0.980  0.980  0.995  0.995  0.996
     eigenvectors (columns):
       0.101  0.980 -0.170  0.008  0.000
      -0.113  0.082  0.433  0.678 -0.577
       0.127  0.057  0.371 -0.714 -0.577
      -0.980  0.101 -0.008 -0.170 -0.000
       0.014  0.138  0.804 -0.036  0.577
     occupation matrix ns (before diag.):
       0.980 -0.001 -0.001  0.000 -0.002
      -0.001  0.995  0.001 -0.002 -0.001
      -0.001  0.001  0.995  0.002 -0.001
       0.000 -0.002  0.002  0.980 -0.000
      -0.002 -0.001 -0.001 -0.000  0.995

     Number of occupied Hubbard levels =   12.8207

     negative rho (up, down):  2.703E-04 2.703E-04

     HUBBARD ENERGY =    0.0000  (Ry)

     total cpu time spent up to now is      164.7 secs

     total energy              =    -741.81592119 Ry
     estimated scf accuracy    <          3.1E-09 Ry

     total magnetization       =     0.00 Bohr mag/cell
     absolute magnetization    =     7.17 Bohr mag/cell

     iteration # 33     ecut=    70.00 Ry     beta= 0.20
     Davidson diagonalization with overlap

---- Real-time Memory Report at c_bands before calling an iterative solver
           208 MiB given to the printing process from OS
           129 MiB allocation reported by mallinfo(arena+hblkhd)
         12270 MiB available memory on the node where the printing process lives
------------------
     ethr =  3.21E-13,  avg # of iterations =  5.0

     =================== HUBBARD OCCUPATIONS ===================
     ------------------------ ATOM    1 ------------------------
     Tr[ns(  1)] (up, down, total) =   4.94445  1.46591  6.41035
     Atomic magnetic moment for atom   1 =   3.47854
     SPIN  1
     eigenvalues:
       0.980  0.980  0.995  0.995  0.996
     eigenvectors (columns):
      -0.170  0.971  0.170  0.001  0.000
       0.107  0.089 -0.399 -0.699 -0.577
      -0.131  0.048 -0.406  0.695 -0.577
       0.971  0.170 -0.001  0.170 -0.000
      -0.024  0.137 -0.805 -0.004  0.577
     occupation matrix ns (before diag.):
       0.980 -0.001 -0.001  0.000 -0.002
      -0.001  0.995  0.001 -0.002 -0.001
      -0.001  0.001  0.995  0.002 -0.001
       0.000 -0.002  0.002  0.980 -0.000
      -0.002 -0.001 -0.001 -0.000  0.995
     SPIN  2
     eigenvalues:
       0.177  0.177  0.226  0.443  0.443
     eigenvectors (columns):
       0.245  0.951 -0.000  0.191  0.008
      -0.111  0.109  0.577 -0.373 -0.710
       0.150  0.042  0.577 -0.428  0.678
      -0.951  0.245  0.000 -0.008  0.191
       0.039  0.151 -0.577 -0.801 -0.032
     occupation matrix ns (before diag.):
       0.187 -0.020 -0.020  0.000 -0.041
      -0.020  0.364 -0.069 -0.035  0.069
      -0.020 -0.069  0.364  0.035  0.069
       0.000 -0.035  0.035  0.187 -0.000
      -0.041  0.069  0.069 -0.000  0.364
     ------------------------ ATOM    2 ------------------------
     Tr[ns(  2)] (up, down, total) =   1.46591  4.94445  6.41035
     Atomic magnetic moment for atom   2 =  -3.47854
     SPIN  1
     eigenvalues:
       0.177  0.177  0.226  0.443  0.443
     eigenvectors (columns):
       0.382  0.904 -0.000  0.190  0.018
      -0.094  0.124  0.577 -0.334 -0.728
       0.155  0.019  0.577 -0.464  0.654
      -0.904  0.382  0.000 -0.018  0.190
       0.061  0.144 -0.577 -0.798 -0.075
     occupation matrix ns (before diag.):
       0.187 -0.020 -0.020  0.000 -0.041
      -0.020  0.364 -0.069 -0.035  0.069
      -0.020 -0.069  0.364  0.035  0.069
       0.000 -0.035  0.035  0.187 -0.000
      -0.041  0.069  0.069 -0.000  0.364
     SPIN  2
     eigenvalues:
       0.980  0.980  0.995  0.995  0.996
     eigenvectors (columns):
       0.151  0.974  0.170  0.006  0.000
      -0.108  0.087 -0.425  0.683 -0.577
       0.130  0.050 -0.379 -0.710 -0.577
      -0.974  0.151  0.006 -0.170 -0.000
       0.021  0.138 -0.804 -0.026  0.577
     occupation matrix ns (before diag.):
       0.980 -0.001 -0.001  0.000 -0.002
      -0.001  0.995  0.001 -0.002 -0.001
      -0.001  0.001  0.995  0.002 -0.001
       0.000 -0.002  0.002  0.980 -0.000
      -0.002 -0.001 -0.001 -0.000  0.995

     Number of occupied Hubbard levels =   12.8207

     negative rho (up, down):  2.703E-04 2.703E-04

     HUBBARD ENERGY =    0.0000  (Ry)

     total cpu time spent up to now is      171.9 secs

     total energy              =    -741.81592119 Ry
     estimated scf accuracy    <          4.8E-10 Ry

     total magnetization       =     0.00 Bohr mag/cell
     absolute magnetization    =     7.17 Bohr mag/cell

     iteration # 34     ecut=    70.00 Ry     beta= 0.20
     Davidson diagonalization with overlap

---- Real-time Memory Report at c_bands before calling an iterative solver
           208 MiB given to the printing process from OS
           129 MiB allocation reported by mallinfo(arena+hblkhd)
         12186 MiB available memory on the node where the printing process lives
------------------
     ethr =  3.21E-13,  avg # of iterations =  5.1

     =================== HUBBARD OCCUPATIONS ===================
     ------------------------ ATOM    1 ------------------------
     Tr[ns(  1)] (up, down, total) =   4.94445  1.46591  6.41036
     Atomic magnetic moment for atom   1 =   3.47853
     SPIN  1
     eigenvalues:
       0.980  0.980  0.995  0.995  0.996
     eigenvectors (columns):
      -0.069  0.983 -0.170  0.000  0.000
       0.115  0.078  0.402 -0.697 -0.577
      -0.125  0.061  0.403  0.696 -0.577
       0.983  0.069  0.000  0.170 -0.000
      -0.010  0.139  0.805 -0.001  0.577
     occupation matrix ns (before diag.):
       0.980 -0.001 -0.001  0.000 -0.002
      -0.001  0.995  0.001 -0.002 -0.001
      -0.001  0.001  0.995  0.002 -0.001
       0.000 -0.002  0.002  0.980 -0.000
      -0.002 -0.001 -0.001 -0.000  0.995
     SPIN  2
     eigenvalues:
       0.177  0.177  0.226  0.443  0.443
     eigenvectors (columns):
      -0.175  0.966 -0.000  0.190  0.018
       0.119  0.101  0.577 -0.334 -0.729
      -0.147  0.053  0.577 -0.464  0.653
       0.966  0.175  0.000 -0.018  0.190
      -0.028  0.154 -0.577 -0.798 -0.075
     occupation matrix ns (before diag.):
       0.187 -0.020 -0.020  0.000 -0.041
      -0.020  0.364 -0.069 -0.035  0.069
      -0.020 -0.069  0.364  0.035  0.069
       0.000 -0.035  0.035  0.187 -0.000
      -0.041  0.069  0.069 -0.000  0.364
     ------------------------ ATOM    2 ------------------------
     Tr[ns(  2)] (up, down, total) =   1.46591  4.94445  6.41036
     Atomic magnetic moment for atom   2 =  -3.47853
     SPIN  1
     eigenvalues:
       0.177  0.177  0.226  0.443  0.443
     eigenvectors (columns):
       0.299  0.935 -0.000  0.191  0.014
      -0.105  0.116  0.577 -0.348 -0.722
       0.152  0.033  0.577 -0.451  0.663
      -0.935  0.299  0.000 -0.014  0.191
       0.048  0.149 -0.577 -0.799 -0.059
     occupation matrix ns (before diag.):
       0.187 -0.020 -0.020  0.000 -0.041
      -0.020  0.364 -0.069 -0.035  0.069
      -0.020 -0.069  0.364  0.035  0.069
       0.000 -0.035  0.035  0.187 -0.000
      -0.041  0.069  0.069 -0.000  0.364
     SPIN  2
     eigenvalues:
       0.980  0.980  0.995  0.995  0.996
     eigenvectors (columns):
       0.275  0.946 -0.170  0.008  0.000
      -0.096  0.100  0.434  0.678 -0.577
       0.135  0.033  0.370 -0.714 -0.577
      -0.946  0.275 -0.008 -0.170 -0.000
       0.039  0.134  0.804 -0.037  0.577
     occupation matrix ns (before diag.):
       0.980 -0.001 -0.001  0.000 -0.002
      -0.001  0.995  0.001 -0.002 -0.001
      -0.001  0.001  0.995  0.002 -0.001
       0.000 -0.002  0.002  0.980 -0.000
      -0.002 -0.001 -0.001 -0.000  0.995

     Number of occupied Hubbard levels =   12.8207

     negative rho (up, down):  2.703E-04 2.703E-04

     HUBBARD ENERGY =    0.0000  (Ry)

     total cpu time spent up to now is      177.5 secs

     total energy              =    -741.81592119 Ry
     estimated scf accuracy    <          6.7E-12 Ry

     total magnetization       =     0.00 Bohr mag/cell
     absolute magnetization    =     7.17 Bohr mag/cell

     iteration # 35     ecut=    70.00 Ry     beta= 0.20
     Davidson diagonalization with overlap

---- Real-time Memory Report at c_bands before calling an iterative solver
           208 MiB given to the printing process from OS
           129 MiB allocation reported by mallinfo(arena+hblkhd)
         12184 MiB available memory on the node where the printing process lives
------------------
     ethr =  1.00E-13,  avg # of iterations =  2.0

     =================== HUBBARD OCCUPATIONS ===================
     ------------------------ ATOM    1 ------------------------
     Tr[ns(  1)] (up, down, total) =   4.94445  1.46591  6.41036
     Atomic magnetic moment for atom   1 =   3.47853
     SPIN  1
     eigenvalues:
       0.980  0.980  0.995  0.995  0.996
     eigenvectors (columns):
       0.058  0.984 -0.170  0.002  0.000
      -0.116  0.077  0.411  0.692 -0.577
       0.124  0.062  0.393 -0.702 -0.577
      -0.984  0.058 -0.002 -0.170 -0.000
       0.008  0.139  0.804 -0.010  0.577
     occupation matrix ns (before diag.):
       0.980 -0.001 -0.001  0.000 -0.002
      -0.001  0.995  0.001 -0.002 -0.001
      -0.001  0.001  0.995  0.002 -0.001
       0.000 -0.002  0.002  0.980 -0.000
      -0.002 -0.001 -0.001 -0.000  0.995
     SPIN  2
     eigenvalues:
       0.177  0.177  0.226  0.443  0.443
     eigenvectors (columns):
       0.330  0.924 -0.000  0.191  0.015
      -0.101  0.119  0.577 -0.346 -0.723
       0.154  0.028  0.577 -0.453  0.661
      -0.924  0.330  0.000 -0.015  0.191
       0.053  0.147 -0.577 -0.799 -0.062
     occupation matrix ns (before diag.):
       0.187 -0.020 -0.020  0.000 -0.041
      -0.020  0.364 -0.069 -0.035  0.069
      -0.020 -0.069  0.364  0.035  0.069
       0.000 -0.035  0.035  0.187 -0.000
      -0.041  0.069  0.069 -0.000  0.364
     ------------------------ ATOM    2 ------------------------
     Tr[ns(  2)] (up, down, total) =   1.46591  4.94445  6.41036
     Atomic magnetic moment for atom   2 =  -3.47853
     SPIN  1
     eigenvalues:
       0.177  0.177  0.226  0.443  0.443
     eigenvectors (columns):
       0.277  0.942 -0.000  0.191  0.013
      -0.108  0.113  0.577 -0.352 -0.720
       0.152  0.037  0.577 -0.447  0.665
      -0.942  0.277  0.000 -0.013  0.191
       0.044  0.150 -0.577 -0.800 -0.055
     occupation matrix ns (before diag.):
       0.187 -0.020 -0.020  0.000 -0.041
      -0.020  0.364 -0.069 -0.035  0.069
      -0.020 -0.069  0.364  0.035  0.069
       0.000 -0.035  0.035  0.187 -0.000
      -0.041  0.069  0.069 -0.000  0.364
     SPIN  2
     eigenvalues:
       0.980  0.980  0.995  0.995  0.996
     eigenvectors (columns):
       0.115  0.979 -0.170  0.000  0.000
      -0.112  0.083  0.403  0.696 -0.577
       0.128  0.055  0.401 -0.697 -0.577
      -0.979  0.115 -0.000 -0.170 -0.000
       0.016  0.138  0.805 -0.001  0.577
     occupation matrix ns (before diag.):
       0.980 -0.001 -0.001  0.000 -0.002
      -0.001  0.995  0.001 -0.002 -0.001
      -0.001  0.001  0.995  0.002 -0.001
       0.000 -0.002  0.002  0.980 -0.000
      -0.002 -0.001 -0.001 -0.000  0.995

     Number of occupied Hubbard levels =   12.8207

     negative rho (up, down):  2.704E-04 2.704E-04

     HUBBARD ENERGY =    0.0000  (Ry)

     total cpu time spent up to now is      181.6 secs

     total energy              =    -741.81592119 Ry
     estimated scf accuracy    <          3.0E-12 Ry

     total magnetization       =     0.00 Bohr mag/cell
     absolute magnetization    =     7.17 Bohr mag/cell

     iteration # 36     ecut=    70.00 Ry     beta= 0.20
     Davidson diagonalization with overlap

---- Real-time Memory Report at c_bands before calling an iterative solver
           208 MiB given to the printing process from OS
           129 MiB allocation reported by mallinfo(arena+hblkhd)
         12184 MiB available memory on the node where the printing process lives
------------------
     ethr =  1.00E-13,  avg # of iterations =  1.1

     =================== HUBBARD OCCUPATIONS ===================
     ------------------------ ATOM    1 ------------------------
     Tr[ns(  1)] (up, down, total) =   4.94445  1.46591  6.41036
     Atomic magnetic moment for atom   1 =   3.47853
     SPIN  1
     eigenvalues:
       0.980  0.980  0.995  0.995  0.996
     eigenvectors (columns):
       0.390  0.905 -0.170  0.010  0.000
      -0.083  0.112  0.442  0.673 -0.577
       0.138  0.016  0.362 -0.719 -0.577
      -0.905  0.390 -0.010 -0.170 -0.000
       0.055  0.128  0.803 -0.046  0.577
     occupation matrix ns (before diag.):
       0.980 -0.001 -0.001  0.000 -0.002
      -0.001  0.995  0.001 -0.002 -0.001
      -0.001  0.001  0.995  0.002 -0.001
       0.000 -0.002  0.002  0.980 -0.000
      -0.002 -0.001 -0.001 -0.000  0.995
     SPIN  2
     eigenvalues:
       0.177  0.177  0.226  0.443  0.443
     eigenvectors (columns):
       0.060  0.980 -0.000  0.191  0.015
      -0.130  0.086  0.577 -0.344 -0.724
       0.140  0.070  0.577 -0.455  0.660
      -0.980  0.060  0.000 -0.015  0.191
       0.010  0.156 -0.577 -0.799 -0.064
     occupation matrix ns (before diag.):
       0.187 -0.020 -0.020  0.000 -0.041
      -0.020  0.364 -0.069 -0.035  0.069
      -0.020 -0.069  0.364  0.035  0.069
       0.000 -0.035  0.035  0.187 -0.000
      -0.041  0.069  0.069 -0.000  0.364
     ------------------------ ATOM    2 ------------------------
     Tr[ns(  2)] (up, down, total) =   1.46591  4.94445  6.41036
     Atomic magnetic moment for atom   2 =  -3.47853
     SPIN  1
     eigenvalues:
       0.177  0.177  0.226  0.443  0.443
     eigenvectors (columns):
       0.088  0.978 -0.000  0.190  0.018
      -0.128  0.090  0.577 -0.334 -0.729
       0.142  0.066  0.577 -0.464  0.653
      -0.978  0.088  0.000 -0.018  0.190
       0.014  0.155 -0.577 -0.798 -0.075
     occupation matrix ns (before diag.):
       0.187 -0.020 -0.020  0.000 -0.041
      -0.020  0.364 -0.069 -0.035  0.069
      -0.020 -0.069  0.364  0.035  0.069
       0.000 -0.035  0.035  0.187 -0.000
      -0.041  0.069  0.069 -0.000  0.364
     SPIN  2
     eigenvalues:
       0.980  0.980  0.995  0.995  0.996
     eigenvectors (columns):
       0.311  0.935 -0.170  0.001  0.000
      -0.092  0.104  0.404  0.695 -0.577
       0.136  0.028  0.400 -0.698 -0.577
      -0.935  0.311 -0.001 -0.170 -0.000
       0.044  0.132  0.805 -0.003  0.577
     occupation matrix ns (before diag.):
       0.980 -0.001 -0.001  0.000 -0.002
      -0.001  0.995  0.001 -0.002 -0.001
      -0.001  0.001  0.995  0.002 -0.001
       0.000 -0.002  0.002  0.980 -0.000
      -0.002 -0.001 -0.001 -0.000  0.995

     Number of occupied Hubbard levels =   12.8207

     negative rho (up, down):  2.704E-04 2.704E-04

     HUBBARD ENERGY =    0.0000  (Ry)

     total cpu time spent up to now is      185.1 secs

     total energy              =    -741.81592119 Ry
     estimated scf accuracy    <          7.4E-12 Ry

     total magnetization       =     0.00 Bohr mag/cell
     absolute magnetization    =     7.17 Bohr mag/cell

     iteration # 37     ecut=    70.00 Ry     beta= 0.20
     Davidson diagonalization with overlap

---- Real-time Memory Report at c_bands before calling an iterative solver
           208 MiB given to the printing process from OS
           129 MiB allocation reported by mallinfo(arena+hblkhd)
         12392 MiB available memory on the node where the printing process lives
------------------
     ethr =  1.00E-13,  avg # of iterations =  1.1

     =================== HUBBARD OCCUPATIONS ===================
     ------------------------ ATOM    1 ------------------------
     Tr[ns(  1)] (up, down, total) =   4.94445  1.46591  6.41036
     Atomic magnetic moment for atom   1 =   3.47853
     SPIN  1
     eigenvalues:
       0.980  0.980  0.995  0.995  0.996
     eigenvectors (columns):
       0.122  0.978 -0.170  0.007  0.000
      -0.111  0.084  0.430  0.680 -0.577
       0.128  0.054  0.374 -0.712 -0.577
      -0.978  0.122 -0.007 -0.170 -0.000
       0.017  0.138  0.804 -0.033  0.577
     occupation matrix ns (before diag.):
       0.980 -0.001 -0.001  0.000 -0.002
      -0.001  0.995  0.001 -0.002 -0.001
      -0.001  0.001  0.995  0.002 -0.001
       0.000 -0.002  0.002  0.980 -0.000
      -0.002 -0.001 -0.001 -0.000  0.995
     SPIN  2
     eigenvalues:
       0.177  0.177  0.226  0.443  0.443
     eigenvectors (columns):
       0.268  0.944 -0.000  0.191  0.009
      -0.109  0.112  0.577 -0.366 -0.713
       0.151  0.038  0.577 -0.434  0.674
      -0.944  0.268  0.000 -0.009  0.191
       0.043  0.150 -0.577 -0.800 -0.039
     occupation matrix ns (before diag.):
       0.187 -0.020 -0.020  0.000 -0.041
      -0.020  0.364 -0.069 -0.035  0.069
      -0.020 -0.069  0.364  0.035  0.069
       0.000 -0.035  0.035  0.187 -0.000
      -0.041  0.069  0.069 -0.000  0.364
     ------------------------ ATOM    2 ------------------------
     Tr[ns(  2)] (up, down, total) =   1.46591  4.94445  6.41036
     Atomic magnetic moment for atom   2 =  -3.47853
     SPIN  1
     eigenvalues:
       0.177  0.177  0.226  0.443  0.443
     eigenvectors (columns):
       0.270  0.944 -0.000  0.191  0.015
      -0.108  0.112  0.577 -0.345 -0.723
       0.151  0.038  0.577 -0.454  0.661
      -0.944  0.270  0.000 -0.015  0.191
       0.043  0.150 -0.577 -0.799 -0.063
     occupation matrix ns (before diag.):
       0.187 -0.020 -0.020  0.000 -0.041
      -0.020  0.364 -0.069 -0.035  0.069
      -0.020 -0.069  0.364  0.035  0.069
       0.000 -0.035  0.035  0.187 -0.000
      -0.041  0.069  0.069 -0.000  0.364
     SPIN  2
     eigenvalues:
       0.980  0.980  0.995  0.995  0.996
     eigenvectors (columns):
       0.233  0.957 -0.170  0.002  0.000
      -0.101  0.096  0.409  0.693 -0.577
       0.134  0.039  0.396 -0.700 -0.577
      -0.957  0.233 -0.002 -0.170 -0.000
       0.033  0.135  0.805 -0.007  0.577
     occupation matrix ns (before diag.):
       0.980 -0.001 -0.001  0.000 -0.002
      -0.001  0.995  0.001 -0.002 -0.001
      -0.001  0.001  0.995  0.002 -0.001
       0.000 -0.002  0.002  0.980 -0.000
      -0.002 -0.001 -0.001 -0.000  0.995

     Number of occupied Hubbard levels =   12.8207

     negative rho (up, down):  2.704E-04 2.704E-04

     HUBBARD ENERGY =    0.0000  (Ry)

     Magnetic moment per site  (integrated on atomic sphere of radius R)
     atom   1 (R=0.206)  charge= 13.5751  magn=  3.3065
     atom   2 (R=0.206)  charge= 13.5751  magn= -3.3065
     atom   3 (R=0.206)  charge=  5.8358  magn=  0.0000
     atom   4 (R=0.206)  charge=  5.8358  magn=  0.0000

     total cpu time spent up to now is      188.9 secs

     End of self-consistent calculation

 ------ SPIN UP ------------


          k = 0.0000 0.0000 0.0000 (  2713 PWs)   bands (ev):

   -75.4246 -71.4503 -41.5529 -41.4317 -41.4317 -37.6090 -37.5774 -37.5774
    -6.2761  -5.1308   5.8475   8.2077   8.2077  10.5764  10.5791  10.5791
    11.0068  11.0252  11.0252  12.0895  12.0895  14.1298  14.1298  14.4751
    14.5765  16.1718

     occupation numbers 
     1.0000   1.0000   1.0000   1.0000   1.0000   1.0000   1.0000   1.0000
     1.0000   1.0000   1.0000   1.0000   1.0000   1.0000   1.0000   1.0000
     1.0000   1.0000   1.0000   1.0000   1.0000   0.8863   0.8863   0.0007
     0.0000   0.0000

          k = 0.2500-0.0833-0.0833 (  2719 PWs)   bands (ev):

   -75.4237 -71.4494 -41.5516 -41.4412 -41.4341 -37.6074 -37.5892 -37.5803
    -6.0417  -5.1091   6.2813   8.0394   8.2887   8.8474   9.8684   9.8919
    10.9554  11.4022  11.4435  12.2815  12.5314  14.0127  14.3052  14.5411
    15.5181  16.0915

     occupation numbers 
     1.0000   1.0000   1.0000   1.0000   1.0000   1.0000   1.0000   1.0000
     1.0000   1.0000   1.0000   1.0000   1.0000   1.0000   1.0000   1.0000
     1.0000   1.0000   1.0000   1.0000   1.0000   1.0796   0.1034   0.0000
     0.0000   0.0000

          k = 0.5000-0.1667-0.1667 (  2713 PWs)   bands (ev):

   -75.4220 -71.4473 -41.5488 -41.4602 -41.4387 -37.6129 -37.6038 -37.5860
    -5.5263  -5.0646   7.0853   7.1835   7.6493   8.4017   8.8749   9.2806
    10.8278  11.5518  11.7357  12.4940  12.6880  13.7242  14.6643  14.8696
    15.6359  15.9675

     occupation numbers 
     1.0000   1.0000   1.0000   1.0000   1.0000   1.0000   1.0000   1.0000
     1.0000   1.0000   1.0000   1.0000   1.0000   1.0000   1.0000   1.0000
     1.0000   1.0000   1.0000   1.0000   1.0000   1.0000   0.0000   0.0000
     0.0000   0.0000

          k =-0.7500 0.2500 0.2500 (  2696 PWs)   bands (ev):

   -75.4211 -71.4462 -41.5471 -41.4694 -41.4410 -37.6244 -37.6017 -37.5888
    -5.1509  -5.1338   6.6945   6.9514   7.8539   8.4067   8.4122   9.0993
    10.7512  11.5604  11.7836  12.6872  12.8850  13.5561  14.8232  15.0443
    15.9035  15.9193

     occupation numbers 
     1.0000   1.0000   1.0000   1.0000   1.0000   1.0000   1.0000   1.0000
     1.0000   1.0000   1.0000   1.0000   1.0000   1.0000   1.0000   1.0000
     1.0000   1.0000   1.0000   1.0000   1.0000   1.0000   0.0000   0.0000
     0.0000   0.0000

          k = 0.1667 0.1667-0.1667 (  2710 PWs)   bands (ev):

   -75.4237 -71.4493 -41.5515 -41.4411 -41.4341 -37.6072 -37.5891 -37.5803
    -6.0189  -5.1378   6.3490   8.0471   8.3882   8.8358   9.6769   9.7013
    11.0269  11.3314  11.3467  12.6211  12.6340  13.9384  14.3382  14.5549
    15.8312  15.9166

     occupation numbers 
     1.0000   1.0000   1.0000   1.0000   1.0000   1.0000   1.0000   1.0000
     1.0000   1.0000   1.0000   1.0000   1.0000   1.0000   1.0000   1.0000
     1.0000   1.0000   1.0000   1.0000   1.0000   1.0335   0.0497   0.0000
     0.0000   0.0000

          k = 0.4167 0.0833-0.2500 (  2709 PWs)   bands (ev):

   -75.4224 -71.4478 -41.5493 -41.4536 -41.4395 -37.6046 -37.6045 -37.5869
    -5.6343  -5.1072   6.9334   7.4380   8.0319   8.3883   8.8862   9.2321
    11.0662  11.5353  11.6144  12.3074  12.6914  14.1552  14.2655  14.8276
    15.6201  15.9562

     occupation numbers 
     1.0000   1.0000   1.0000   1.0000   1.0000   1.0000   1.0000   1.0000
     1.0000   1.0000   1.0000   1.0000   1.0000   1.0000   1.0000   1.0000
     1.0000   1.0000   1.0000   1.0000   1.0000   0.7661   0.2161   0.0000
     0.0000   0.0000

          k =-0.8333 0.5000 0.1667 (  2706 PWs)   bands (ev):

   -75.4212 -71.4463 -41.5472 -41.4648 -41.4460 -37.6185 -37.6018 -37.5950
    -5.2222  -5.0644   6.8856   7.0080   7.8522   8.3537   8.5142   8.6102
    11.0654  11.5980  11.7251  12.4514  12.6517  14.0277  14.6192  14.9693
    15.8137  16.0042

     occupation numbers 
     1.0000   1.0000   1.0000   1.0000   1.0000   1.0000   1.0000   1.0000
     1.0000   1.0000   1.0000   1.0000   1.0000   1.0000   1.0000   1.0000
     1.0000   1.0000   1.0000   1.0000   1.0000   1.0832   0.0000   0.0000
     0.0000   0.0000

          k =-0.5833 0.4167 0.0833 (  2707 PWs)   bands (ev):

   -75.4212 -71.4463 -41.5472 -41.4648 -41.4460 -37.6185 -37.6018 -37.5950
    -5.2331  -5.0551   6.7396   7.4091   7.8315   8.2823   8.3754   8.5184
    11.1045  11.6022  11.7506  12.4270  12.6537  14.0069  14.6254  14.9711
    15.6922  16.2223

     occupation numbers 
     1.0000   1.0000   1.0000   1.0000   1.0000   1.0000   1.0000   1.0000
     1.0000   1.0000   1.0000   1.0000   1.0000   1.0000   1.0000   1.0000
     1.0000   1.0000   1.0000   1.0000   1.0000   1.0772   0.0000   0.0000
     0.0000   0.0000

          k =-0.3333 0.3333-0.0000 (  2712 PWs)   bands (ev):

   -75.4224 -71.4478 -41.5494 -41.4536 -41.4395 -37.6046 -37.6046 -37.5869
    -5.6734  -5.0646   6.9908   7.5684   7.8416   8.3744   8.8586   9.1865
    11.0967  11.5933  11.6370  12.2393  12.7529  14.1566  14.2426  14.8221
    15.6868  16.0238

     occupation numbers 
     1.0000   1.0000   1.0000   1.0000   1.0000   1.0000   1.0000   1.0000
     1.0000   1.0000   1.0000   1.0000   1.0000   1.0000   1.0000   1.0000
     1.0000   1.0000   1.0000   1.0000   1.0000   0.7586   0.3078   0.0000
     0.0000   0.0000

          k = 0.3333 0.3333-0.3333 (  2699 PWs)   bands (ev):

   -75.4220 -71.4472 -41.5486 -41.4600 -41.4387 -37.6126 -37.6036 -37.5860
    -5.4503  -5.1449   6.7296   7.0665   8.2718   8.4843   8.8203   9.1701
    10.7818  11.5430  11.5573  12.7085  12.8086  13.7708  14.6852  14.8256
    15.9889  16.0559

     occupation numbers 
     1.0000   1.0000   1.0000   1.0000   1.0000   1.0000   1.0000   1.0000
     1.0000   1.0000   1.0000   1.0000   1.0000   1.0000   1.0000   1.0000
     1.0000   1.0000   1.0000   1.0000   1.0000   1.0003   0.0000   0.0000
     0.0000   0.0000

          k =-0.9167 0.7500 0.0833 (  2704 PWs)   bands (ev):

   -75.4212 -71.4462 -41.5472 -41.4649 -41.4459 -37.6185 -37.6017 -37.5948
    -5.1834  -5.1008   6.3467   7.2122   8.1668   8.3324   8.4221   8.9413
    10.9863  11.5103  11.6189  12.5782  12.7245  14.0828  14.6204  14.9668
    15.8416  16.2299

     occupation numbers 
     1.0000   1.0000   1.0000   1.0000   1.0000   1.0000   1.0000   1.0000
     1.0000   1.0000   1.0000   1.0000   1.0000   1.0000   1.0000   1.0000
     1.0000   1.0000   1.0000   1.0000   1.0000   1.0357   0.0000   0.0000
     0.0000   0.0000

          k =-0.6667 0.6667 0.0000 (  2718 PWs)   bands (ev):

   -75.4208 -71.4458 -41.5466 -41.4585 -41.4584 -37.6105 -37.6105 -37.6010
    -5.0646  -5.0645   7.0012   7.1148   7.6216   7.8887   8.3711   8.5593
    11.2103  11.5989  11.6480  12.5078  12.7148  14.5051  14.5451  14.7107
    15.9190  16.0566

     occupation numbers 
     1.0000   1.0000   1.0000   1.0000   1.0000   1.0000   1.0000   1.0000
     1.0000   1.0000   1.0000   1.0000   1.0000   1.0000   1.0000   1.0000
     1.0000   1.0000   1.0000   1.0000   1.0000   0.0002   0.0000   0.0000
     0.0000   0.0000

          k =-0.5000-0.5000 0.5000 (  2712 PWs)   bands (ev):

   -75.4212 -71.4463 -41.5473 -41.4697 -41.4412 -37.6246 -37.6018 -37.5889
    -5.1455  -5.1306   5.8588   7.0873   8.2308   8.2355   9.4449   9.4461
    10.2809  11.5460  11.6395  12.4809  12.6853  13.8597  14.8377  15.0383
    16.2760  16.3672

     occupation numbers 
     1.0000   1.0000   1.0000   1.0000   1.0000   1.0000   1.0000   1.0000
     1.0000   1.0000   1.0000   1.0000   1.0000   1.0000   1.0000   1.0000
     1.0000   1.0000   1.0000   1.0000   1.0000   1.0057   0.0000   0.0000
     0.0000   0.0000

          k = 0.0833 0.0833 0.0833 (  2731 PWs)   bands (ev):

   -75.4246 -71.4504 -41.5530 -41.4319 -41.4319 -37.6092 -37.5776 -37.5776
    -6.2087  -5.2192   6.0743   8.2808   8.2808   9.9440  10.2942  10.2942
    11.0431  11.0431  11.1441  12.3610  12.3610  14.1076  14.1076  14.4289
    15.0379  16.0900

     occupation numbers 
     1.0000   1.0000   1.0000   1.0000   1.0000   1.0000   1.0000   1.0000
     1.0000   1.0000   1.0000   1.0000   1.0000   1.0000   1.0000   1.0000
     1.0000   1.0000   1.0000   1.0000   1.0000   0.9703   0.9703   0.0037
     0.0000   0.0000

          k = 0.3333 0.0000 0.0000 (  2706 PWs)   bands (ev):

   -75.4237 -71.4493 -41.5513 -41.4412 -41.4340 -37.6072 -37.5892 -37.5803
    -5.9510  -5.2187   6.5008   8.0899   8.3115   8.5396   9.8842   9.9057
    10.8620  11.4861  11.5682  12.1711  12.2639  14.0873  14.2810  14.5258
    15.2278  16.1789

     occupation numbers 
     1.0000   1.0000   1.0000   1.0000   1.0000   1.0000   1.0000   1.0000
     1.0000   1.0000   1.0000   1.0000   1.0000   1.0000   1.0000   1.0000
     1.0000   1.0000   1.0000   1.0000   1.0000   1.0262   0.1649   0.0001
     0.0000   0.0000

          k =-0.9167 0.4167 0.4167 (  2695 PWs)   bands (ev):

   -75.4220 -71.4472 -41.5485 -41.4600 -41.4387 -37.6126 -37.6035 -37.5859
    -5.4742  -5.1173   6.7104   7.1247   7.9925   8.3275   9.2581   9.4457
    10.6552  11.5619  11.8141  12.2263  12.4571  13.8512  14.6576  14.8845
    15.4211  16.1407

     occupation numbers 
     1.0000   1.0000   1.0000   1.0000   1.0000   1.0000   1.0000   1.0000
     1.0000   1.0000   1.0000   1.0000   1.0000   1.0000   1.0000   1.0000
     1.0000   1.0000   1.0000   1.0000   1.0000   1.0045   0.0000   0.0000
     0.0000   0.0000

          k =-0.6667 0.3333 0.3333 (  2699 PWs)   bands (ev):

   -75.4211 -71.4462 -41.5471 -41.4695 -41.4410 -37.6245 -37.6017 -37.5888
    -5.1495  -5.1331   6.3502   7.0778   8.0242   8.3550   8.5878   9.1949
    10.6801  11.5575  11.7492  12.6718  12.7803  13.6391  14.8272  15.0429
    15.9890  16.0134

     occupation numbers 
     1.0000   1.0000   1.0000   1.0000   1.0000   1.0000   1.0000   1.0000
     1.0000   1.0000   1.0000   1.0000   1.0000   1.0000   1.0000   1.0000
     1.0000   1.0000   1.0000   1.0000   1.0000   1.0000   0.0000   0.0000
     0.0000   0.0000

          k =-0.4167 0.2500 0.2500 (  2706 PWs)   bands (ev):

   -75.4220 -71.4473 -41.5488 -41.4601 -41.4386 -37.6128 -37.6037 -37.5859
    -5.5178  -5.0750   7.0146   7.2433   7.7417   8.4952   8.7211   9.1317
    10.8738  11.5443  11.6281  12.7528  12.8138  13.6824  14.6799  14.8447
    15.8842  15.9626

     occupation numbers 
     1.0000   1.0000   1.0000   1.0000   1.0000   1.0000   1.0000   1.0000
     1.0000   1.0000   1.0000   1.0000   1.0000   1.0000   1.0000   1.0000
     1.0000   1.0000   1.0000   1.0000   1.0000   1.0000   0.0000   0.0000
     0.0000   0.0000

          k = 0.2500 0.2500-0.0833 (  2719 PWs)   bands (ev):

   -75.4237 -71.4494 -41.5515 -41.4411 -41.4343 -37.6075 -37.5891 -37.5805
    -5.8869  -5.2943   6.6759   8.0687   8.5124   8.5606   9.4093   9.5491
    11.0217  11.2891  11.4734  12.4328  12.8151  13.9312  14.3517  14.5331
    15.6376  15.8267

     occupation numbers 
     1.0000   1.0000   1.0000   1.0000   1.0000   1.0000   1.0000   1.0000
     1.0000   1.0000   1.0000   1.0000   1.0000   1.0000   1.0000   1.0000
     1.0000   1.0000   1.0000   1.0000   1.0000   1.0295   0.0357   0.0001
     0.0000   0.0000

          k =-1.0000 0.6667 0.3333 (  2701 PWs)   bands (ev):

   -75.4224 -71.4477 -41.5492 -41.4535 -41.4394 -37.6045 -37.6045 -37.5868
    -5.5263  -5.2221   6.8816   7.1968   8.3965   8.4880   8.8173   9.3064
    11.0253  11.3778  11.6644  12.2762  12.6493  14.1711  14.2951  14.8452
    15.4933  15.9069

     occupation numbers 
     1.0000   1.0000   1.0000   1.0000   1.0000   1.0000   1.0000   1.0000
     1.0000   1.0000   1.0000   1.0000   1.0000   1.0000   1.0000   1.0000
     1.0000   1.0000   1.0000   1.0000   1.0000   0.6818   0.1266   0.0000
     0.0000   0.0000

          k =-0.7500 0.5833 0.2500 (  2705 PWs)   bands (ev):

   -75.4212 -71.4463 -41.5472 -41.4648 -41.4460 -37.6185 -37.6017 -37.5950
    -5.1896  -5.0942   6.5869   6.9710   7.9647   8.4124   8.5384   8.9274
    10.9732  11.5679  11.6227  12.5967  12.6329  14.0775  14.6193  14.9652
    15.8798  15.9727

     occupation numbers 
     1.0000   1.0000   1.0000   1.0000   1.0000   1.0000   1.0000   1.0000
     1.0000   1.0000   1.0000   1.0000   1.0000   1.0000   1.0000   1.0000
     1.0000   1.0000   1.0000   1.0000   1.0000   1.0458   0.0000   0.0000
     0.0000   0.0000

          k =-0.5000 0.5000 0.1667 (  2703 PWs)   bands (ev):

   -75.4212 -71.4462 -41.5472 -41.4648 -41.4459 -37.6185 -37.6017 -37.5949
    -5.2187  -5.0682   6.5110   7.3790   8.1227   8.2789   8.3808   8.5700
    11.0852  11.5749  11.6696  12.5344  12.6434  14.0338  14.6271  14.9695
    15.7131  16.3424

     occupation numbers 
     1.0000   1.0000   1.0000   1.0000   1.0000   1.0000   1.0000   1.0000
     1.0000   1.0000   1.0000   1.0000   1.0000   1.0000   1.0000   1.0000
     1.0000   1.0000   1.0000   1.0000   1.0000   1.0832   0.0000   0.0000
     0.0000   0.0000

          k =-0.5833-0.5833 0.7500 (  2707 PWs)   bands (ev):

   -75.4220 -71.4473 -41.5487 -41.4601 -41.4388 -37.6127 -37.6036 -37.5861
    -5.3409  -5.2548   6.5243   6.9885   8.3898   8.4759   9.1983   9.3519
    10.5970  11.5506  11.5538  12.4806  12.6326  13.8957  14.6780  14.8208
    15.7819  16.1624

     occupation numbers 
     1.0000   1.0000   1.0000   1.0000   1.0000   1.0000   1.0000   1.0000
     1.0000   1.0000   1.0000   1.0000   1.0000   1.0000   1.0000   1.0000
     1.0000   1.0000   1.0000   1.0000   1.0000   1.0141   0.0000   0.0000
     0.0000   0.0000

          k =-0.3333-0.6667 0.6667 (  2699 PWs)   bands (ev):

   -75.4211 -71.4462 -41.5472 -41.4647 -41.4459 -37.6184 -37.6017 -37.5949
    -5.1453  -5.1373   6.3598   7.0646   8.0752   8.3813   8.5161   9.1213
    10.9055  11.5011  11.6063  12.5984  12.7338  14.1059  14.6185  14.9642
    15.9136  16.0539

     occupation numbers 
     1.0000   1.0000   1.0000   1.0000   1.0000   1.0000   1.0000   1.0000
     1.0000   1.0000   1.0000   1.0000   1.0000   1.0000   1.0000   1.0000
     1.0000   1.0000   1.0000   1.0000   1.0000   0.9759   0.0000   0.0000
     0.0000   0.0000

          k =-0.0833-0.7500 0.5833 (  2700 PWs)   bands (ev):

   -75.4207 -71.4457 -41.5465 -41.4583 -41.4581 -37.6104 -37.6102 -37.6009
    -5.0646  -5.0646   7.0405   7.0621   7.6848   7.8254   8.3988   8.5455
    11.2104  11.5987  11.6487  12.5054  12.7175  14.5061  14.5441  14.7107
    15.9261  16.0497

     occupation numbers 
     1.0000   1.0000   1.0000   1.0000   1.0000   1.0000   1.0000   1.0000
     1.0000   1.0000   1.0000   1.0000   1.0000   1.0000   1.0000   1.0000
     1.0000   1.0000   1.0000   1.0000   1.0000   0.0002   0.0000   0.0000
     0.0000   0.0000

          k =-0.4167-0.4167 0.5833 (  2704 PWs)   bands (ev):

   -75.4212 -71.4463 -41.5471 -41.4696 -41.4412 -37.6246 -37.6016 -37.5889
    -5.1468  -5.1315   5.9915   7.0950   8.1884   8.2670   9.0994   9.3653
    10.4703  11.5504  11.6769  12.5792  12.6737  13.7886  14.8344  15.0400
    16.1913  16.2089

     occupation numbers 
     1.0000   1.0000   1.0000   1.0000   1.0000   1.0000   1.0000   1.0000
     1.0000   1.0000   1.0000   1.0000   1.0000   1.0000   1.0000   1.0000
     1.0000   1.0000   1.0000   1.0000   1.0000   1.0006   0.0000   0.0000
     0.0000   0.0000

          k = 0.1667 0.1667 0.1667 (  2710 PWs)   bands (ev):

   -75.4245 -71.4503 -41.5525 -41.4318 -41.4318 -37.6089 -37.5775 -37.5775
    -6.0190  -5.4501   6.7107   8.4708   8.4708   8.8419   9.8133   9.8133
    11.0714  11.0714  11.1986  12.7959  12.7959  14.0634  14.0634  14.2790
    15.9124  15.9124

     occupation numbers 
     1.0000   1.0000   1.0000   1.0000   1.0000   1.0000   1.0000   1.0000
     1.0000   1.0000   1.0000   1.0000   1.0000   1.0000   1.0000   1.0000
     1.0000   1.0000   1.0000   1.0000   1.0000   1.0662   1.0662   0.1710
     0.0000   0.0000

          k =-1.0833 0.5833 0.5833 (  2698 PWs)   bands (ev):

   -75.4237 -71.4493 -41.5511 -41.4411 -41.4340 -37.6071 -37.5891 -37.5802
    -5.7656  -5.4286   6.9538   7.7085   8.4450   8.7179   9.4630   9.6427
    10.8881  11.3885  11.6589  12.1905  12.4226  14.0841  14.2904  14.5259
    15.1599  16.1043

     occupation numbers 
     1.0000   1.0000   1.0000   1.0000   1.0000   1.0000   1.0000   1.0000
     1.0000   1.0000   1.0000   1.0000   1.0000   1.0000   1.0000   1.0000
     1.0000   1.0000   1.0000   1.0000   1.0000   1.0331   0.1387   0.0001
     0.0000   0.0000

          k =-0.8333 0.5000 0.5000 (  2702 PWs)   bands (ev):

   -75.4220 -71.4473 -41.5486 -41.4600 -41.4388 -37.6127 -37.6036 -37.5860
    -5.3751  -5.2187   6.5089   7.0225   8.3156   8.3238   9.4819   9.4956
    10.4866  11.5665  11.6598  12.3488  12.3518  13.9345  14.6655  14.8497
    15.4926  16.2323

     occupation numbers 
     1.0000   1.0000   1.0000   1.0000   1.0000   1.0000   1.0000   1.0000
     1.0000   1.0000   1.0000   1.0000   1.0000   1.0000   1.0000   1.0000
     1.0000   1.0000   1.0000   1.0000   1.0000   1.0313   0.0000   0.0000
     0.0000   0.0000

          k =-0.6667-0.6667 1.0000 (  2707 PWs)   bands (ev):

   -75.4237 -71.4493 -41.5513 -41.4411 -41.4341 -37.6073 -37.5891 -37.5804
    -5.6739  -5.5259   7.1606   7.5515   8.6028   8.8274   9.1952   9.3758
    10.9628  11.3141  11.6312  12.2436  12.7142  14.0028  14.3276  14.5120
    15.3714  15.9289

     occupation numbers 
     1.0000   1.0000   1.0000   1.0000   1.0000   1.0000   1.0000   1.0000
     1.0000   1.0000   1.0000   1.0000   1.0000   1.0000   1.0000   1.0000
     1.0000   1.0000   1.0000   1.0000   1.0000   1.0751   0.0637   0.0002
     0.0000   0.0000

          k =-0.4167-0.7500 0.9167 (  2706 PWs)   bands (ev):

   -75.4224 -71.4478 -41.5493 -41.4536 -41.4393 -37.6046 -37.6046 -37.5867
    -5.3786  -5.3733   6.8974   7.0585   8.5142   8.6987   8.7302   9.2674
    11.0462  11.2803  11.7113  12.1728  12.6719  14.1850  14.3039  14.8548
    15.4696  15.8748

     occupation numbers 
     1.0000   1.0000   1.0000   1.0000   1.0000   1.0000   1.0000   1.0000
     1.0000   1.0000   1.0000   1.0000   1.0000   1.0000   1.0000   1.0000
     1.0000   1.0000   1.0000   1.0000   1.0000   0.6051   0.1061   0.0000
     0.0000   0.0000

          k =-0.2500-0.2500-0.2500 (  2702 PWs)   bands (ev):

   -75.4245 -71.4503 -41.5525 -41.4316 -41.4316 -37.6091 -37.5774 -37.5774
    -5.7563  -5.7332   7.4892   7.8874   8.6122   8.6122   9.5583   9.5583
    11.0850  11.0850  11.2070  12.9926  12.9926  14.0410  14.0410  14.2084
    15.8140  15.8140

     occupation numbers 
     1.0000   1.0000   1.0000   1.0000   1.0000   1.0000   1.0000   1.0000
     1.0000   1.0000   1.0000   1.0000   1.0000   1.0000   1.0000   1.0000
     1.0000   1.0000   1.0000   1.0000   1.0000   1.0818   1.0818   0.4767
     0.0000   0.0000

 ------ SPIN DOWN ----------


          k = 0.0000 0.0000 0.0000 (  2713 PWs)   bands (ev):

   -75.4246 -71.4503 -41.5529 -41.4317 -41.4317 -37.6090 -37.5774 -37.5774
    -6.2761  -5.1308   5.8475   8.2077   8.2077  10.5764  10.5791  10.5791
    11.0068  11.0252  11.0252  12.0895  12.0895  14.1298  14.1298  14.4751
    14.5765  16.1718

     occupation numbers 
     1.0000   1.0000   1.0000   1.0000   1.0000   1.0000   1.0000   1.0000
     1.0000   1.0000   1.0000   1.0000   1.0000   1.0000   1.0000   1.0000
     1.0000   1.0000   1.0000   1.0000   1.0000   0.8863   0.8863   0.0007
     0.0000   0.0000

          k = 0.2500-0.0833-0.0833 (  2719 PWs)   bands (ev):

   -75.4237 -71.4494 -41.5516 -41.4412 -41.4341 -37.6074 -37.5892 -37.5803
    -6.0417  -5.1091   6.2813   8.0394   8.2887   8.8474   9.8684   9.8919
    10.9554  11.4022  11.4435  12.2815  12.5314  14.0127  14.3052  14.5411
    15.5181  16.0915

     occupation numbers 
     1.0000   1.0000   1.0000   1.0000   1.0000   1.0000   1.0000   1.0000
     1.0000   1.0000   1.0000   1.0000   1.0000   1.0000   1.0000   1.0000
     1.0000   1.0000   1.0000   1.0000   1.0000   1.0796   0.1034   0.0000
     0.0000   0.0000

          k = 0.5000-0.1667-0.1667 (  2713 PWs)   bands (ev):

   -75.4220 -71.4473 -41.5488 -41.4602 -41.4387 -37.6129 -37.6038 -37.5860
    -5.5263  -5.0646   7.0853   7.1835   7.6493   8.4017   8.8749   9.2806
    10.8278  11.5518  11.7357  12.4940  12.6880  13.7242  14.6643  14.8696
    15.6359  15.9675

     occupation numbers 
     1.0000   1.0000   1.0000   1.0000   1.0000   1.0000   1.0000   1.0000
     1.0000   1.0000   1.0000   1.0000   1.0000   1.0000   1.0000   1.0000
     1.0000   1.0000   1.0000   1.0000   1.0000   1.0000   0.0000   0.0000
     0.0000   0.0000

          k =-0.7500 0.2500 0.2500 (  2696 PWs)   bands (ev):

   -75.4211 -71.4462 -41.5471 -41.4694 -41.4410 -37.6244 -37.6017 -37.5888
    -5.1509  -5.1338   6.6945   6.9514   7.8539   8.4067   8.4122   9.0993
    10.7512  11.5604  11.7836  12.6872  12.8850  13.5561  14.8232  15.0443
    15.9035  15.9193

     occupation numbers 
     1.0000   1.0000   1.0000   1.0000   1.0000   1.0000   1.0000   1.0000
     1.0000   1.0000   1.0000   1.0000   1.0000   1.0000   1.0000   1.0000
     1.0000   1.0000   1.0000   1.0000   1.0000   1.0000   0.0000   0.0000
     0.0000   0.0000

          k = 0.1667 0.1667-0.1667 (  2710 PWs)   bands (ev):

   -75.4237 -71.4493 -41.5515 -41.4411 -41.4341 -37.6072 -37.5891 -37.5803
    -6.0189  -5.1378   6.3490   8.0471   8.3882   8.8358   9.6769   9.7013
    11.0269  11.3314  11.3467  12.6211  12.6340  13.9384  14.3382  14.5549
    15.8312  15.9166

     occupation numbers 
     1.0000   1.0000   1.0000   1.0000   1.0000   1.0000   1.0000   1.0000
     1.0000   1.0000   1.0000   1.0000   1.0000   1.0000   1.0000   1.0000
     1.0000   1.0000   1.0000   1.0000   1.0000   1.0335   0.0497   0.0000
     0.0000   0.0000

          k = 0.4167 0.0833-0.2500 (  2709 PWs)   bands (ev):

   -75.4224 -71.4478 -41.5493 -41.4536 -41.4395 -37.6046 -37.6045 -37.5869
    -5.6343  -5.1072   6.9334   7.4380   8.0319   8.3883   8.8862   9.2321
    11.0662  11.5353  11.6144  12.3074  12.6914  14.1552  14.2655  14.8276
    15.6201  15.9562

     occupation numbers 
     1.0000   1.0000   1.0000   1.0000   1.0000   1.0000   1.0000   1.0000
     1.0000   1.0000   1.0000   1.0000   1.0000   1.0000   1.0000   1.0000
     1.0000   1.0000   1.0000   1.0000   1.0000   0.7661   0.2161   0.0000
     0.0000   0.0000

          k =-0.8333 0.5000 0.1667 (  2706 PWs)   bands (ev):

   -75.4212 -71.4463 -41.5472 -41.4648 -41.4460 -37.6185 -37.6018 -37.5950
    -5.2222  -5.0644   6.8856   7.0080   7.8522   8.3537   8.5142   8.6102
    11.0654  11.5980  11.7251  12.4514  12.6517  14.0277  14.6192  14.9693
    15.8137  16.0042

     occupation numbers 
     1.0000   1.0000   1.0000   1.0000   1.0000   1.0000   1.0000   1.0000
     1.0000   1.0000   1.0000   1.0000   1.0000   1.0000   1.0000   1.0000
     1.0000   1.0000   1.0000   1.0000   1.0000   1.0832   0.0000   0.0000
     0.0000   0.0000

          k =-0.5833 0.4167 0.0833 (  2707 PWs)   bands (ev):

   -75.4212 -71.4463 -41.5472 -41.4648 -41.4460 -37.6185 -37.6018 -37.5950
    -5.2331  -5.0551   6.7396   7.4091   7.8315   8.2823   8.3754   8.5184
    11.1045  11.6022  11.7506  12.4270  12.6537  14.0069  14.6254  14.9711
    15.6922  16.2223

     occupation numbers 
     1.0000   1.0000   1.0000   1.0000   1.0000   1.0000   1.0000   1.0000
     1.0000   1.0000   1.0000   1.0000   1.0000   1.0000   1.0000   1.0000
     1.0000   1.0000   1.0000   1.0000   1.0000   1.0772   0.0000   0.0000
     0.0000   0.0000

          k =-0.3333 0.3333-0.0000 (  2712 PWs)   bands (ev):

   -75.4224 -71.4478 -41.5494 -41.4536 -41.4394 -37.6046 -37.6046 -37.5869
    -5.6734  -5.0646   6.9908   7.5684   7.8416   8.3744   8.8586   9.1865
    11.0967  11.5933  11.6370  12.2393  12.7529  14.1566  14.2426  14.8221
    15.6868  16.0238

     occupation numbers 
     1.0000   1.0000   1.0000   1.0000   1.0000   1.0000   1.0000   1.0000
     1.0000   1.0000   1.0000   1.0000   1.0000   1.0000   1.0000   1.0000
     1.0000   1.0000   1.0000   1.0000   1.0000   0.7586   0.3078   0.0000
     0.0000   0.0000

          k = 0.3333 0.3333-0.3333 (  2699 PWs)   bands (ev):

   -75.4220 -71.4472 -41.5486 -41.4600 -41.4387 -37.6126 -37.6036 -37.5860
    -5.4503  -5.1449   6.7296   7.0665   8.2718   8.4843   8.8203   9.1701
    10.7818  11.5430  11.5573  12.7085  12.8086  13.7708  14.6852  14.8256
    15.9889  16.0559

     occupation numbers 
     1.0000   1.0000   1.0000   1.0000   1.0000   1.0000   1.0000   1.0000
     1.0000   1.0000   1.0000   1.0000   1.0000   1.0000   1.0000   1.0000
     1.0000   1.0000   1.0000   1.0000   1.0000   1.0003   0.0000   0.0000
     0.0000   0.0000

          k =-0.9167 0.7500 0.0833 (  2704 PWs)   bands (ev):

   -75.4212 -71.4462 -41.5472 -41.4649 -41.4459 -37.6185 -37.6017 -37.5948
    -5.1834  -5.1008   6.3467   7.2122   8.1668   8.3324   8.4221   8.9413
    10.9863  11.5103  11.6189  12.5782  12.7245  14.0828  14.6204  14.9668
    15.8416  16.2299

     occupation numbers 
     1.0000   1.0000   1.0000   1.0000   1.0000   1.0000   1.0000   1.0000
     1.0000   1.0000   1.0000   1.0000   1.0000   1.0000   1.0000   1.0000
     1.0000   1.0000   1.0000   1.0000   1.0000   1.0357   0.0000   0.0000
     0.0000   0.0000

          k =-0.6667 0.6667 0.0000 (  2718 PWs)   bands (ev):

   -75.4208 -71.4458 -41.5466 -41.4585 -41.4584 -37.6105 -37.6105 -37.6010
    -5.0646  -5.0645   7.0012   7.1148   7.6216   7.8887   8.3711   8.5593
    11.2103  11.5989  11.6480  12.5078  12.7148  14.5051  14.5451  14.7107
    15.9190  16.0566

     occupation numbers 
     1.0000   1.0000   1.0000   1.0000   1.0000   1.0000   1.0000   1.0000
     1.0000   1.0000   1.0000   1.0000   1.0000   1.0000   1.0000   1.0000
     1.0000   1.0000   1.0000   1.0000   1.0000   0.0002   0.0000   0.0000
     0.0000   0.0000

          k =-0.5000-0.5000 0.5000 (  2712 PWs)   bands (ev):

   -75.4212 -71.4463 -41.5473 -41.4697 -41.4412 -37.6246 -37.6018 -37.5889
    -5.1454  -5.1306   5.8588   7.0873   8.2308   8.2355   9.4449   9.4461
    10.2809  11.5460  11.6395  12.4809  12.6853  13.8597  14.8377  15.0383
    16.2760  16.3672

     occupation numbers 
     1.0000   1.0000   1.0000   1.0000   1.0000   1.0000   1.0000   1.0000
     1.0000   1.0000   1.0000   1.0000   1.0000   1.0000   1.0000   1.0000
     1.0000   1.0000   1.0000   1.0000   1.0000   1.0057   0.0000   0.0000
     0.0000   0.0000

          k = 0.0833 0.0833 0.0833 (  2731 PWs)   bands (ev):

   -75.4246 -71.4504 -41.5530 -41.4319 -41.4319 -37.6092 -37.5776 -37.5776
    -6.2087  -5.2192   6.0743   8.2808   8.2808   9.9440  10.2942  10.2942
    11.0431  11.0431  11.1441  12.3610  12.3610  14.1076  14.1076  14.4289
    15.0379  16.0900

     occupation numbers 
     1.0000   1.0000   1.0000   1.0000   1.0000   1.0000   1.0000   1.0000
     1.0000   1.0000   1.0000   1.0000   1.0000   1.0000   1.0000   1.0000
     1.0000   1.0000   1.0000   1.0000   1.0000   0.9703   0.9703   0.0037
     0.0000   0.0000

          k = 0.3333 0.0000 0.0000 (  2706 PWs)   bands (ev):

   -75.4237 -71.4493 -41.5513 -41.4412 -41.4340 -37.6072 -37.5892 -37.5803
    -5.9510  -5.2187   6.5008   8.0899   8.3115   8.5396   9.8842   9.9057
    10.8620  11.4861  11.5682  12.1711  12.2639  14.0873  14.2810  14.5258
    15.2278  16.1789

     occupation numbers 
     1.0000   1.0000   1.0000   1.0000   1.0000   1.0000   1.0000   1.0000
     1.0000   1.0000   1.0000   1.0000   1.0000   1.0000   1.0000   1.0000
     1.0000   1.0000   1.0000   1.0000   1.0000   1.0262   0.1649   0.0001
     0.0000   0.0000

          k =-0.9167 0.4167 0.4167 (  2695 PWs)   bands (ev):

   -75.4220 -71.4472 -41.5485 -41.4600 -41.4387 -37.6126 -37.6035 -37.5859
    -5.4742  -5.1173   6.7104   7.1247   7.9925   8.3275   9.2581   9.4457
    10.6552  11.5619  11.8141  12.2263  12.4571  13.8512  14.6576  14.8845
    15.4211  16.1407

     occupation numbers 
     1.0000   1.0000   1.0000   1.0000   1.0000   1.0000   1.0000   1.0000
     1.0000   1.0000   1.0000   1.0000   1.0000   1.0000   1.0000   1.0000
     1.0000   1.0000   1.0000   1.0000   1.0000   1.0045   0.0000   0.0000
     0.0000   0.0000

          k =-0.6667 0.3333 0.3333 (  2699 PWs)   bands (ev):

   -75.4211 -71.4462 -41.5471 -41.4695 -41.4410 -37.6245 -37.6017 -37.5888
    -5.1495  -5.1331   6.3502   7.0778   8.0242   8.3550   8.5878   9.1949
    10.6801  11.5575  11.7492  12.6718  12.7803  13.6391  14.8272  15.0429
    15.9890  16.0134

     occupation numbers 
     1.0000   1.0000   1.0000   1.0000   1.0000   1.0000   1.0000   1.0000
     1.0000   1.0000   1.0000   1.0000   1.0000   1.0000   1.0000   1.0000
     1.0000   1.0000   1.0000   1.0000   1.0000   1.0000   0.0000   0.0000
     0.0000   0.0000

          k =-0.4167 0.2500 0.2500 (  2706 PWs)   bands (ev):

   -75.4220 -71.4473 -41.5488 -41.4601 -41.4386 -37.6128 -37.6037 -37.5859
    -5.5178  -5.0750   7.0146   7.2433   7.7417   8.4952   8.7211   9.1317
    10.8738  11.5443  11.6281  12.7528  12.8138  13.6824  14.6799  14.8447
    15.8842  15.9626

     occupation numbers 
     1.0000   1.0000   1.0000   1.0000   1.0000   1.0000   1.0000   1.0000
     1.0000   1.0000   1.0000   1.0000   1.0000   1.0000   1.0000   1.0000
     1.0000   1.0000   1.0000   1.0000   1.0000   1.0000   0.0000   0.0000
     0.0000   0.0000

          k = 0.2500 0.2500-0.0833 (  2719 PWs)   bands (ev):

   -75.4237 -71.4494 -41.5515 -41.4411 -41.4343 -37.6075 -37.5891 -37.5805
    -5.8869  -5.2943   6.6759   8.0687   8.5124   8.5606   9.4093   9.5491
    11.0217  11.2891  11.4734  12.4328  12.8151  13.9312  14.3517  14.5331
    15.6376  15.8267

     occupation numbers 
     1.0000   1.0000   1.0000   1.0000   1.0000   1.0000   1.0000   1.0000
     1.0000   1.0000   1.0000   1.0000   1.0000   1.0000   1.0000   1.0000
     1.0000   1.0000   1.0000   1.0000   1.0000   1.0295   0.0357   0.0001
     0.0000   0.0000

          k =-1.0000 0.6667 0.3333 (  2701 PWs)   bands (ev):

   -75.4224 -71.4477 -41.5492 -41.4535 -41.4394 -37.6045 -37.6045 -37.5868
    -5.5263  -5.2221   6.8816   7.1968   8.3965   8.4880   8.8173   9.3064
    11.0253  11.3778  11.6644  12.2762  12.6493  14.1711  14.2951  14.8452
    15.4933  15.9069

     occupation numbers 
     1.0000   1.0000   1.0000   1.0000   1.0000   1.0000   1.0000   1.0000
     1.0000   1.0000   1.0000   1.0000   1.0000   1.0000   1.0000   1.0000
     1.0000   1.0000   1.0000   1.0000   1.0000   0.6818   0.1266   0.0000
     0.0000   0.0000

          k =-0.7500 0.5833 0.2500 (  2705 PWs)   bands (ev):

   -75.4212 -71.4463 -41.5472 -41.4648 -41.4460 -37.6185 -37.6017 -37.5950
    -5.1896  -5.0942   6.5869   6.9710   7.9647   8.4124   8.5384   8.9274
    10.9732  11.5679  11.6227  12.5967  12.6329  14.0775  14.6193  14.9652
    15.8798  15.9727

     occupation numbers 
     1.0000   1.0000   1.0000   1.0000   1.0000   1.0000   1.0000   1.0000
     1.0000   1.0000   1.0000   1.0000   1.0000   1.0000   1.0000   1.0000
     1.0000   1.0000   1.0000   1.0000   1.0000   1.0458   0.0000   0.0000
     0.0000   0.0000

          k =-0.5000 0.5000 0.1667 (  2703 PWs)   bands (ev):

   -75.4212 -71.4462 -41.5472 -41.4648 -41.4459 -37.6185 -37.6017 -37.5949
    -5.2187  -5.0682   6.5110   7.3790   8.1227   8.2789   8.3808   8.5700
    11.0852  11.5749  11.6696  12.5344  12.6434  14.0338  14.6271  14.9695
    15.7131  16.3424

     occupation numbers 
     1.0000   1.0000   1.0000   1.0000   1.0000   1.0000   1.0000   1.0000
     1.0000   1.0000   1.0000   1.0000   1.0000   1.0000   1.0000   1.0000
     1.0000   1.0000   1.0000   1.0000   1.0000   1.0832   0.0000   0.0000
     0.0000   0.0000

          k =-0.5833-0.5833 0.7500 (  2707 PWs)   bands (ev):

   -75.4220 -71.4473 -41.5487 -41.4601 -41.4388 -37.6127 -37.6036 -37.5861
    -5.3409  -5.2548   6.5243   6.9885   8.3898   8.4759   9.1983   9.3519
    10.5970  11.5506  11.5538  12.4806  12.6326  13.8957  14.6780  14.8208
    15.7819  16.1624

     occupation numbers 
     1.0000   1.0000   1.0000   1.0000   1.0000   1.0000   1.0000   1.0000
     1.0000   1.0000   1.0000   1.0000   1.0000   1.0000   1.0000   1.0000
     1.0000   1.0000   1.0000   1.0000   1.0000   1.0141   0.0000   0.0000
     0.0000   0.0000

          k =-0.3333-0.6667 0.6667 (  2699 PWs)   bands (ev):

   -75.4211 -71.4462 -41.5472 -41.4647 -41.4459 -37.6184 -37.6017 -37.5949
    -5.1453  -5.1373   6.3598   7.0646   8.0752   8.3813   8.5161   9.1213
    10.9055  11.5011  11.6063  12.5984  12.7338  14.1059  14.6185  14.9642
    15.9136  16.0539

     occupation numbers 
     1.0000   1.0000   1.0000   1.0000   1.0000   1.0000   1.0000   1.0000
     1.0000   1.0000   1.0000   1.0000   1.0000   1.0000   1.0000   1.0000
     1.0000   1.0000   1.0000   1.0000   1.0000   0.9759   0.0000   0.0000
     0.0000   0.0000

          k =-0.0833-0.7500 0.5833 (  2700 PWs)   bands (ev):

   -75.4207 -71.4457 -41.5465 -41.4583 -41.4581 -37.6104 -37.6102 -37.6009
    -5.0646  -5.0646   7.0405   7.0621   7.6848   7.8254   8.3988   8.5455
    11.2104  11.5987  11.6487  12.5054  12.7175  14.5061  14.5441  14.7107
    15.9261  16.0497

     occupation numbers 
     1.0000   1.0000   1.0000   1.0000   1.0000   1.0000   1.0000   1.0000
     1.0000   1.0000   1.0000   1.0000   1.0000   1.0000   1.0000   1.0000
     1.0000   1.0000   1.0000   1.0000   1.0000   0.0002   0.0000   0.0000
     0.0000   0.0000

          k =-0.4167-0.4167 0.5833 (  2704 PWs)   bands (ev):

   -75.4212 -71.4463 -41.5471 -41.4696 -41.4411 -37.6246 -37.6016 -37.5889
    -5.1468  -5.1315   5.9915   7.0950   8.1884   8.2670   9.0994   9.3653
    10.4703  11.5504  11.6769  12.5792  12.6737  13.7886  14.8344  15.0400
    16.1913  16.2089

     occupation numbers 
     1.0000   1.0000   1.0000   1.0000   1.0000   1.0000   1.0000   1.0000
     1.0000   1.0000   1.0000   1.0000   1.0000   1.0000   1.0000   1.0000
     1.0000   1.0000   1.0000   1.0000   1.0000   1.0006   0.0000   0.0000
     0.0000   0.0000

          k = 0.1667 0.1667 0.1667 (  2710 PWs)   bands (ev):

   -75.4245 -71.4503 -41.5525 -41.4318 -41.4318 -37.6089 -37.5775 -37.5775
    -6.0190  -5.4501   6.7107   8.4708   8.4708   8.8419   9.8133   9.8133
    11.0714  11.0714  11.1986  12.7959  12.7959  14.0634  14.0634  14.2790
    15.9124  15.9124

     occupation numbers 
     1.0000   1.0000   1.0000   1.0000   1.0000   1.0000   1.0000   1.0000
     1.0000   1.0000   1.0000   1.0000   1.0000   1.0000   1.0000   1.0000
     1.0000   1.0000   1.0000   1.0000   1.0000   1.0662   1.0662   0.1710
     0.0000   0.0000

          k =-1.0833 0.5833 0.5833 (  2698 PWs)   bands (ev):

   -75.4237 -71.4493 -41.5511 -41.4411 -41.4340 -37.6071 -37.5891 -37.5802
    -5.7656  -5.4286   6.9538   7.7085   8.4450   8.7179   9.4630   9.6427
    10.8881  11.3885  11.6589  12.1905  12.4226  14.0841  14.2904  14.5259
    15.1599  16.1043

     occupation numbers 
     1.0000   1.0000   1.0000   1.0000   1.0000   1.0000   1.0000   1.0000
     1.0000   1.0000   1.0000   1.0000   1.0000   1.0000   1.0000   1.0000
     1.0000   1.0000   1.0000   1.0000   1.0000   1.0331   0.1387   0.0001
     0.0000   0.0000

          k =-0.8333 0.5000 0.5000 (  2702 PWs)   bands (ev):

   -75.4220 -71.4473 -41.5486 -41.4600 -41.4388 -37.6127 -37.6036 -37.5860
    -5.3751  -5.2187   6.5089   7.0225   8.3156   8.3238   9.4819   9.4956
    10.4866  11.5665  11.6598  12.3488  12.3518  13.9345  14.6655  14.8497
    15.4926  16.2323

     occupation numbers 
     1.0000   1.0000   1.0000   1.0000   1.0000   1.0000   1.0000   1.0000
     1.0000   1.0000   1.0000   1.0000   1.0000   1.0000   1.0000   1.0000
     1.0000   1.0000   1.0000   1.0000   1.0000   1.0313   0.0000   0.0000
     0.0000   0.0000

          k =-0.6667-0.6667 1.0000 (  2707 PWs)   bands (ev):

   -75.4237 -71.4493 -41.5513 -41.4411 -41.4341 -37.6073 -37.5891 -37.5804
    -5.6739  -5.5259   7.1606   7.5515   8.6028   8.8274   9.1952   9.3758
    10.9628  11.3141  11.6312  12.2436  12.7142  14.0028  14.3276  14.5120
    15.3714  15.9289

     occupation numbers 
     1.0000   1.0000   1.0000   1.0000   1.0000   1.0000   1.0000   1.0000
     1.0000   1.0000   1.0000   1.0000   1.0000   1.0000   1.0000   1.0000
     1.0000   1.0000   1.0000   1.0000   1.0000   1.0751   0.0637   0.0002
     0.0000   0.0000

          k =-0.4167-0.7500 0.9167 (  2706 PWs)   bands (ev):

   -75.4224 -71.4478 -41.5493 -41.4536 -41.4393 -37.6046 -37.6046 -37.5867
    -5.3786  -5.3733   6.8974   7.0585   8.5142   8.6987   8.7302   9.2674
    11.0462  11.2803  11.7113  12.1728  12.6719  14.1850  14.3039  14.8548
    15.4696  15.8748

     occupation numbers 
     1.0000   1.0000   1.0000   1.0000   1.0000   1.0000   1.0000   1.0000
     1.0000   1.0000   1.0000   1.0000   1.0000   1.0000   1.0000   1.0000
     1.0000   1.0000   1.0000   1.0000   1.0000   0.6051   0.1061   0.0000
     0.0000   0.0000

          k =-0.2500-0.2500-0.2500 (  2702 PWs)   bands (ev):

   -75.4245 -71.4503 -41.5525 -41.4316 -41.4316 -37.6091 -37.5774 -37.5774
    -5.7563  -5.7332   7.4892   7.8874   8.6122   8.6122   9.5583   9.5583
    11.0850  11.0850  11.2070  12.9926  12.9926  14.0410  14.0410  14.2084
    15.8140  15.8140

     occupation numbers 
     1.0000   1.0000   1.0000   1.0000   1.0000   1.0000   1.0000   1.0000
     1.0000   1.0000   1.0000   1.0000   1.0000   1.0000   1.0000   1.0000
     1.0000   1.0000   1.0000   1.0000   1.0000   1.0818   1.0818   0.4767
     0.0000   0.0000

     the Fermi energy is    14.2230 ev

!    total energy              =    -741.81592119 Ry
     total all-electron energy =     -5392.102768 Ry
     estimated scf accuracy    <          4.0E-13 Ry
     smearing contrib. (-TS)   =       0.00038276 Ry
     internal energy E=F+TS    =    -741.81630395 Ry

     The total energy is F=E-TS. E is the sum of the following terms:
     one-electron contribution =    -267.54498661 Ry
     hartree contribution      =     159.52630649 Ry
     xc contribution           =     -70.59897178 Ry
     ewald contribution        =    -378.48617103 Ry
     Hubbard energy            =       0.00000000 Ry
     one-center paw contrib.   =    -184.71248101 Ry
      -> PAW hartree energy AE =     183.93240749 Ry
      -> PAW hartree energy PS =    -182.63130930 Ry
      -> PAW xc energy AE      =    -110.39042366 Ry
      -> PAW xc energy PS      =      26.32193590 Ry
      -> total E_H with PAW    =     160.82740469 Ry
      -> total E_XC with PAW   =    -154.66745955 Ry

     total magnetization       =     0.00 Bohr mag/cell
     absolute magnetization    =     7.17 Bohr mag/cell

     convergence has been achieved in  37 iterations

     negative rho (up, down):  2.704E-04 2.704E-04
     force_hub    :      0.79s CPU      0.79s WALL (       1 calls)
     dndtau       :      0.68s CPU      0.68s WALL (     192 calls)
     dprojdtau    :      0.20s CPU      0.20s WALL (     384 calls)
     calc_doverla :      0.30s CPU      0.30s WALL (     192 calls)
     matel_dSdtau :      0.41s CPU      0.41s WALL (     384 calls)

     Forces acting on atoms (cartesian axes, Ry/au):

     atom    1 type  1   force =     0.00000000   -0.00000000    0.00000000
     atom    2 type  2   force =     0.00000000    0.00000000   -0.00000000
     atom    3 type  3   force =     0.00000029    0.00000029    0.00000029
     atom    4 type  3   force =    -0.00000029   -0.00000029   -0.00000029
     The non-local contrib.  to forces
     atom    1 type  1   force =    -0.00000000   -0.00000000    0.00000000
     atom    2 type  2   force =     0.00000000   -0.00000000   -0.00000000
     atom    3 type  3   force =     0.00000019    0.00000019    0.00000019
     atom    4 type  3   force =    -0.00000019   -0.00000019   -0.00000019
     The ionic contribution  to forces
     atom    1 type  1   force =    -0.00000000   -0.00000000   -0.00000000
     atom    2 type  2   force =     0.00000000    0.00000000    0.00000000
     atom    3 type  3   force =    -0.00000000   -0.00000000   -0.00000000
     atom    4 type  3   force =     0.00000000    0.00000000    0.00000000
     The local contribution  to forces
     atom    1 type  1   force =     0.00000000    0.00000000   -0.00000000
     atom    2 type  2   force =     0.00000000    0.00000000    0.00000000
     atom    3 type  3   force =     0.00000065    0.00000065    0.00000065
     atom    4 type  3   force =    -0.00000065   -0.00000065   -0.00000065
     The core correction contribution to forces
     atom    1 type  1   force =     0.00000000   -0.00000000   -0.00000000
     atom    2 type  2   force =    -0.00000000   -0.00000000   -0.00000000
     atom    3 type  3   force =    -0.00000000   -0.00000000   -0.00000000
     atom    4 type  3   force =     0.00000000    0.00000000    0.00000000
     The Hubbard contrib.    to forces
     atom    1 type  1   force =    -0.00000000    0.00000000    0.00000000
     atom    2 type  2   force =     0.00000000    0.00000000   -0.00000000
     atom    3 type  3   force =     0.00000000    0.00000000    0.00000000
     atom    4 type  3   force =    -0.00000000   -0.00000000   -0.00000000
     The SCF correction term to forces
     atom    1 type  1   force =     0.00000000   -0.00000000    0.00000000
     atom    2 type  2   force =    -0.00000000    0.00000000    0.00000000
     atom    3 type  3   force =    -0.00000054   -0.00000054   -0.00000054
     atom    4 type  3   force =     0.00000054    0.00000054    0.00000054

     Total force =     0.000001     Total SCF correction =     0.000001
     SCF correction compared to forces is large: reduce conv_thr to get better values


     Computing stress (Cartesian axis) and pressure


     negative rho (up, down):  2.704E-04 2.704E-04
     stres_hub    :      2.28s CPU      2.33s WALL (       1 calls)
     dprojdepsilo :      2.00s CPU      2.04s WALL (     144 calls)
     dprojdeps1   :      0.55s CPU      0.56s WALL (     144 calls)
     dprojdeps2   :      0.96s CPU      0.99s WALL (     144 calls)
     dprojdeps3   :      0.48s CPU      0.48s WALL (     144 calls)
          total   stress  (Ry/bohr**3)                   (kbar)     P=      -62.49
  -0.00042480   0.00023665   0.00023665          -62.49       34.81       34.81
   0.00023665  -0.00042480   0.00023665           34.81      -62.49       34.81
   0.00023665   0.00023665  -0.00042480           34.81       34.81      -62.49

     kinetic stress (kbar)  67269.49     -1.38     -1.38
                               -1.38  67269.49     -1.38
                               -1.38     -1.38  67269.49

     local   stress (kbar)  -1748.67     65.80     65.80
                               65.80  -1748.67     65.80
                               65.80     65.80  -1748.67

     nonloc. stress (kbar) -14277.18     -8.09     -8.09
                               -8.09 -14277.18     -8.09
                               -8.09     -8.09 -14277.18

     hartree stress (kbar)  28583.07    -21.73    -21.73
                              -21.73  28583.07    -21.73
                              -21.73    -21.73  28583.07

     exc-cor stress (kbar) -10087.18     -0.21     -0.21
                               -0.21 -10087.18     -0.21
                               -0.21     -0.21 -10087.18

     corecor stress (kbar)  -1986.91      0.42      0.42
                                0.42  -1986.91      0.42
                                0.42      0.42  -1986.91

     ewald   stress (kbar) -67815.12     -0.00     -0.00
                               -0.00 -67815.12      0.00
                               -0.00      0.00 -67815.12

     hubbard stress (kbar)     -0.00      0.00      0.00
                                0.00     -0.00      0.00
                                0.00      0.00     -0.00

     DFT-D   stress (kbar)      0.00      0.00      0.00
                                0.00      0.00      0.00
                                0.00      0.00      0.00

     XDM     stress (kbar)      0.00      0.00      0.00
                                0.00      0.00      0.00
                                0.00      0.00      0.00

     dft-nl  stress (kbar)      0.00      0.00      0.00
                                0.00      0.00      0.00
                                0.00      0.00      0.00

     TS-vdW  stress (kbar)      0.00      0.00      0.00
                                0.00      0.00      0.00
                                0.00      0.00      0.00

     MDB     stress (kbar)      0.00      0.00      0.00
                                0.00      0.00      0.00
                                0.00      0.00      0.00

     3D-RISM stress (kbar)      0.00      0.00      0.00
                                0.00      0.00      0.00
                                0.00      0.00      0.00


     Writing all to output data dir ./tmp/FeO.save/ :
     XML data file, charge density, pseudopotentials, collected wavefunctions

     init_run     :      3.91s CPU      4.51s WALL (       1 calls)
     electrons    :    174.84s CPU    183.93s WALL (       1 calls)
     forces       :      1.66s CPU      1.76s WALL (       1 calls)
     stress       :      4.25s CPU      4.53s WALL (       1 calls)

     Called by init_run:
     wfcinit      :      1.48s CPU      1.53s WALL (       1 calls)
     wfcinit:atom :      0.01s CPU      0.01s WALL (      16 calls)
     wfcinit:wfcr :      1.33s CPU      1.38s WALL (      16 calls)
     potinit      :      1.15s CPU      1.60s WALL (       1 calls)
     hinit0       :      1.06s CPU      1.11s WALL (       1 calls)

     Called by electrons:
     c_bands      :    104.36s CPU    107.98s WALL (      37 calls)
     sum_band     :     29.43s CPU     30.28s WALL (      37 calls)
     v_of_rho     :     19.34s CPU     23.58s WALL (      38 calls)
     v_h          :      0.37s CPU      0.44s WALL (      38 calls)
     v_xc         :     19.98s CPU     24.38s WALL (      40 calls)
     newd         :      4.71s CPU      4.97s WALL (      38 calls)
     PAW_pot      :     13.24s CPU     13.57s WALL (      38 calls)
     mix_rho      :      2.54s CPU      2.69s WALL (      37 calls)

     Called by c_bands:
     init_us_2    :      1.12s CPU      1.14s WALL (    1280 calls)
     cegterg      :     92.77s CPU     96.33s WALL (     592 calls)

     Called by sum_band:
     sum_band:wei :      0.08s CPU      0.08s WALL (      37 calls)
     sum_band:loo :     18.27s CPU     18.91s WALL (      37 calls)
     sum_band:buf :      0.06s CPU      0.06s WALL (     592 calls)
     sum_band:ini :      0.45s CPU      0.46s WALL (     592 calls)
     sum_band:cal :      0.65s CPU      0.67s WALL (     592 calls)
     sum_band:bec :      0.01s CPU      0.01s WALL (     592 calls)
     addusdens    :      7.32s CPU      7.35s WALL (      37 calls)
                                        0.00s GPU  (      37 calls)
     addusd:skk   :      0.01s CPU      0.01s WALL (     111 calls)
                                        0.00s GPU  (     111 calls)

     Called by *egterg:
     cdiaghg      :      1.79s CPU      1.83s WALL (    2357 calls)
     cegterg:over :      1.88s CPU      1.95s WALL (    1765 calls)
     cegterg:upda :      0.78s CPU      0.80s WALL (    1765 calls)
     cegterg:last :      1.43s CPU      1.46s WALL (    1184 calls)
     h_psi        :     85.61s CPU     89.00s WALL (    2373 calls)
     s_psi        :      1.01s CPU      1.05s WALL (    2453 calls)
     g_psi        :      0.21s CPU      0.22s WALL (    1765 calls)

     Called by h_psi:
     h_psi:calbec :      1.60s CPU      1.66s WALL (    2373 calls)
     vloc_psi     :     81.95s CPU     85.21s WALL (    2373 calls)
                                        0.00s GPU  (    2373 calls)
     add_vuspsi   :      0.96s CPU      0.99s WALL (    2373 calls)
     vhpsi        :      0.92s CPU      0.96s WALL (    2373 calls)

     General routines
     calbec       :      4.68s CPU      4.84s WALL (   12602 calls)
     fft          :     10.29s CPU     11.18s WALL (     988 calls)
     ffts         :      1.33s CPU      1.39s WALL (     962 calls)
     fftw         :     88.92s CPU     92.43s WALL (   92398 calls)
     interpolate  :      1.30s CPU      1.35s WALL (      76 calls)

     Parallel routines

     Hubbard U routines
     new_ns       :      0.29s CPU      0.29s WALL (      37 calls)
     vhpsi        :      0.92s CPU      0.96s WALL (    2373 calls)
     force_hub    :      0.79s CPU      0.79s WALL (       1 calls)
     stres_hub    :      2.28s CPU      2.33s WALL (       1 calls)

     PAW routines
     PAW_pot      :     13.24s CPU     13.57s WALL (      38 calls)
     PAW_symme    :      0.09s CPU      0.09s WALL (      75 calls)

     PWSCF        :   3m 5.13s CPU   3m15.31s WALL


   This run was terminated on:  15:51:12  25Jul2026            

=------------------------------------------------------------------------------=
   JOB DONE.
=------------------------------------------------------------------------------=
