
     Program PWSCF v.7.5 starts on 25Jul2026 at 16:19:28 

     This program is part of the open-source Quantum ESPRESSO suite
     for quantum simulation of materials; please cite
         "P. Giannozzi et al., J. Phys.:Condens. Matter 21 395502 (2009);
         "P. Giannozzi et al., J. Phys.:Condens. Matter 29 465901 (2017);
         "P. Giannozzi et al., J. Chem. Phys. 152 154105 (2020);
          URL http://www.quantum-espresso.org", 
     in publications or presentations arising from this work. More details at
     http://www.quantum-espresso.org/quote

     Parallel version (MPI & OpenMP), running on       6 processor cores
     Number of MPI processes:                 6
     Threads/MPI process:                     1

     MPI processes distributed on     1 nodes
     8439 MiB available memory on the printing compute node when the environment starts

     Reading input from feo_ufix2.scf.in

     Current dimensions of program PWSCF are:
     Max number of different atomic species (ntypx) = 10
     Max number of k-points (npk) =  40000
     Max angular momentum in pseudopotentials (lmaxx) =  4
     file Fe.pbe-spn-kjpaw_psl.1.0.0.UPF: wavefunction(s)  3P 3D renormalized
     file Fe.pbe-spn-kjpaw_psl.1.0.0.UPF: wavefunction(s)  3P 3D renormalized
     file O.pbe-n-kjpaw_psl.1.0.0.UPF: wavefunction(s)  2S 2P renormalized
     Message from routine volume:
     axis vectors are left-handed
     Message from routine setup:
     using ibrav=0 with symmetry is DISCOURAGED, use correct ibrav instead

     K-points division:     npool     =       3
     R & G space division:  proc/nbgrp/npool/nimage =       2
     Subspace diagonalization in iterative solution of the eigenvalue problem:
     a serial algorithm will be used


     Parallelization info
     --------------------
     sticks:   dense  smooth     PW     G-vecs:    dense   smooth      PW
     Min        1550     618    192                42771    10819    1916
     Max        1551     619    193                42772    10820    1917
     Sum        3101    1237    385                85543    21639    3833

     Using Slab Decomposition



     bravais-lattice index     =            0
     lattice parameter (alat)  =       8.1800  a.u.
     unit-cell volume          =     273.6717 (a.u.)^3
     number of atoms/cell      =            4
     number of atomic types    =            3
     number of electrons       =        44.00
     number of Kohn-Sham states=           26
     kinetic-energy cutoff     =      70.0000  Ry
     charge density cutoff     =     700.0000  Ry
     scf convergence threshold =      1.0E-08
     mixing beta               =       0.1000
     number of iterations used =            8  local-TF  mixing
     Exchange-correlation= SLA  PW   PBX  PBC
                           (   1   4   3   4   0   0   0)
     Hubbard projectors: ortho-atomic
     Hubbard parameters of DFT+U (Dudarev formulation) in eV:
     U(Fe1-3d) =  4.6000
     U(Fe2-3d) =  4.6000

     Internal variables: lda_plus_u =T, lda_plus_u_kind = 0

     Internal variables: orbital_resolved =F, hub_pot_fix =F, apply_U = F

     celldm(1)=   8.180000  celldm(2)=   0.000000  celldm(3)=   0.000000
     celldm(4)=   0.000000  celldm(5)=   0.000000  celldm(6)=   0.000000

     crystal axes: (cart. coord. in units of alat)
               a(1) = (   0.500000   0.500000   1.000000 )  
               a(2) = (   0.500000   1.000000   0.500000 )  
               a(3) = (   1.000000   0.500000   0.500000 )  

     reciprocal axes: (cart. coord. in units 2 pi/alat)
               b(1) = ( -0.500000 -0.500000  1.500000 )  
               b(2) = ( -0.500000  1.500000 -0.500000 )  
               b(3) = (  1.500000 -0.500000 -0.500000 )  


     PseudoPot. # 1 for Fe read from file:
     ./pseudo/Fe.pbe-spn-kjpaw_psl.1.0.0.UPF
     MD5 check sum: fc81f059e5c5069939230b1155715ae8
     Pseudo is Projector augmented-wave + core cor, Zval = 16.0
     Generated using &quot;atomic&quot; code by A. Dal Corso  v.6.3
     Shape of augmentation charge: PSQ
     Using radial grid of 1191 points,  6 beta functions with: 
                l(1) =   0
                l(2) =   0
                l(3) =   1
                l(4) =   1
                l(5) =   2
                l(6) =   2
     Q(r) pseudized with 0 coefficients 


     PseudoPot. # 2 for Fe read from file:
     ./pseudo/Fe.pbe-spn-kjpaw_psl.1.0.0.UPF
     MD5 check sum: fc81f059e5c5069939230b1155715ae8
     Pseudo is Projector augmented-wave + core cor, Zval = 16.0
     Generated using &quot;atomic&quot; code by A. Dal Corso  v.6.3
     Shape of augmentation charge: PSQ
     Using radial grid of 1191 points,  6 beta functions with: 
                l(1) =   0
                l(2) =   0
                l(3) =   1
                l(4) =   1
                l(5) =   2
                l(6) =   2
     Q(r) pseudized with 0 coefficients 


     PseudoPot. # 3 for O  read from file:
     ./pseudo/O.pbe-n-kjpaw_psl.1.0.0.UPF
     MD5 check sum: e99d9cef9b487d1ca56f5b95ecd0fd7a
     Pseudo is Projector augmented-wave + core cor, Zval =  6.0
     Generated using &quot;atomic&quot; code by A. Dal Corso  v.6.3
     Shape of augmentation charge: PSQ
     Using radial grid of 1095 points,  4 beta functions with: 
                l(1) =   0
                l(2) =   0
                l(3) =   1
                l(4) =   1
     Q(r) pseudized with 0 coefficients 


     atomic species   valence    mass     pseudopotential
     Fe1              16.00    55.84500     Fe( 1.00)
     Fe2              16.00    55.84500     Fe( 1.00)
     O                 6.00    15.99900     O ( 1.00)

     Starting magnetic structure 
     atomic species   magnetization
     Fe1             0.600
     Fe2            -0.600
     O               0.000

     12 Sym. Ops., with inversion, found


                                    s                        frac. trans.

      isym =  1     identity                                     

 cryst.   s( 1) = (     1          0          0      )
                  (     0          1          0      )
                  (     0          0          1      )

 cart.    s( 1) = (  1.0000000  0.0000000  0.0000000 )
                  (  0.0000000  1.0000000  0.0000000 )
                  (  0.0000000  0.0000000  1.0000000 )


      isym =  2     180 deg rotation - cart. axis [1,-1,0]       

 cryst.   s( 2) = (    -1          0          0      )
                  (     0          0         -1      )
                  (     0         -1          0      )

 cart.    s( 2) = (  0.0000000 -1.0000000  0.0000000 )
                  ( -1.0000000  0.0000000  0.0000000 )
                  (  0.0000000  0.0000000 -1.0000000 )


      isym =  3     180 deg rotation - cart. axis [-1,0,1]       

 cryst.   s( 3) = (     0          0         -1      )
                  (     0         -1          0      )
                  (    -1          0          0      )

 cart.    s( 3) = (  0.0000000  0.0000000 -1.0000000 )
                  (  0.0000000 -1.0000000  0.0000000 )
                  ( -1.0000000  0.0000000  0.0000000 )


      isym =  4     180 deg rotation - cart. axis [0,1,-1]       

 cryst.   s( 4) = (     0         -1          0      )
                  (    -1          0          0      )
                  (     0          0         -1      )

 cart.    s( 4) = ( -1.0000000  0.0000000  0.0000000 )
                  (  0.0000000  0.0000000 -1.0000000 )
                  (  0.0000000 -1.0000000  0.0000000 )


      isym =  5     120 deg rotation - cart. axis [-1,-1,-1]     

 cryst.   s( 5) = (     0          1          0      )
                  (     0          0          1      )
                  (     1          0          0      )

 cart.    s( 5) = (  0.0000000  1.0000000  0.0000000 )
                  (  0.0000000  0.0000000  1.0000000 )
                  (  1.0000000  0.0000000  0.0000000 )


      isym =  6     120 deg rotation - cart. axis [1,1,1]        

 cryst.   s( 6) = (     0          0          1      )
                  (     1          0          0      )
                  (     0          1          0      )

 cart.    s( 6) = (  0.0000000  0.0000000  1.0000000 )
                  (  1.0000000  0.0000000  0.0000000 )
                  (  0.0000000  1.0000000  0.0000000 )


      isym =  7     inversion                                    

 cryst.   s( 7) = (    -1          0          0      )
                  (     0         -1          0      )
                  (     0          0         -1      )

 cart.    s( 7) = ( -1.0000000  0.0000000  0.0000000 )
                  (  0.0000000 -1.0000000  0.0000000 )
                  (  0.0000000  0.0000000 -1.0000000 )


      isym =  8     inv. 180 deg rotation - cart. axis [1,-1,0]  

 cryst.   s( 8) = (     1          0          0      )
                  (     0          0          1      )
                  (     0          1          0      )

 cart.    s( 8) = (  0.0000000  1.0000000  0.0000000 )
                  (  1.0000000  0.0000000  0.0000000 )
                  (  0.0000000  0.0000000  1.0000000 )


      isym =  9     inv. 180 deg rotation - cart. axis [-1,0,1]  

 cryst.   s( 9) = (     0          0          1      )
                  (     0          1          0      )
                  (     1          0          0      )

 cart.    s( 9) = (  0.0000000  0.0000000  1.0000000 )
                  (  0.0000000  1.0000000  0.0000000 )
                  (  1.0000000  0.0000000  0.0000000 )


      isym = 10     inv. 180 deg rotation - cart. axis [0,1,-1]  

 cryst.   s(10) = (     0          1          0      )
                  (     1          0          0      )
                  (     0          0          1      )

 cart.    s(10) = (  1.0000000  0.0000000  0.0000000 )
                  (  0.0000000  0.0000000  1.0000000 )
                  (  0.0000000  1.0000000  0.0000000 )


      isym = 11     inv. 120 deg rotation - cart. axis [-1,-1,-1]

 cryst.   s(11) = (     0         -1          0      )
                  (     0          0         -1      )
                  (    -1          0          0      )

 cart.    s(11) = (  0.0000000 -1.0000000  0.0000000 )
                  (  0.0000000  0.0000000 -1.0000000 )
                  ( -1.0000000  0.0000000  0.0000000 )


      isym = 12     inv. 120 deg rotation - cart. axis [1,1,1]   

 cryst.   s(12) = (     0          0         -1      )
                  (    -1          0          0      )
                  (     0         -1          0      )

 cart.    s(12) = (  0.0000000  0.0000000 -1.0000000 )
                  ( -1.0000000  0.0000000  0.0000000 )
                  (  0.0000000 -1.0000000  0.0000000 )


   Cartesian axes

     site n.     atom                  positions (alat units)
         1        Fe1    tau(   1) = (   0.0000000   0.0000000   0.0000000  )
         2        Fe2    tau(   2) = (   1.0000000   1.0000000   1.0000000  )
         3        O      tau(   3) = (   0.5000000   0.5000000   0.5000000  )
         4        O      tau(   4) = (   1.5000000   1.5000000   1.5000000  )

   Crystallographic axes

     site n.     atom                  positions (cryst. coord.)
         1        Fe1    tau(   1) = (  0.0000000  0.0000000  0.0000000  )
         2        Fe2    tau(   2) = (  0.5000000  0.5000000  0.5000000  )
         3        O      tau(   3) = (  0.2500000  0.2500000  0.2500000  )
         4        O      tau(   4) = (  0.7500000  0.7500000  0.7500000  )

     number of k points=    32  Marzari-Vanderbilt smearing, width (Ry)=  0.0050
                       cart. coord. in units 2pi/alat
        k(    1) = (   0.0000000   0.0000000   0.0000000), wk =   0.0046296
        k(    2) = (   0.2500000  -0.0833333  -0.0833333), wk =   0.0277778
        k(    3) = (   0.5000000  -0.1666667  -0.1666667), wk =   0.0277778
        k(    4) = (  -0.7500000   0.2500000   0.2500000), wk =   0.0138889
        k(    5) = (   0.1666667   0.1666667  -0.1666667), wk =   0.0277778
        k(    6) = (   0.4166667   0.0833333  -0.2500000), wk =   0.0555556
        k(    7) = (  -0.8333333   0.5000000   0.1666667), wk =   0.0555556
        k(    8) = (  -0.5833333   0.4166667   0.0833333), wk =   0.0555556
        k(    9) = (  -0.3333333   0.3333333  -0.0000000), wk =   0.0277778
        k(   10) = (   0.3333333   0.3333333  -0.3333333), wk =   0.0277778
        k(   11) = (  -0.9166667   0.7500000   0.0833333), wk =   0.0555556
        k(   12) = (  -0.6666667   0.6666667   0.0000000), wk =   0.0277778
        k(   13) = (  -0.5000000  -0.5000000   0.5000000), wk =   0.0138889
        k(   14) = (   0.0833333   0.0833333   0.0833333), wk =   0.0092593
        k(   15) = (   0.3333333   0.0000000   0.0000000), wk =   0.0277778
        k(   16) = (  -0.9166667   0.4166667   0.4166667), wk =   0.0277778
        k(   17) = (  -0.6666667   0.3333333   0.3333333), wk =   0.0277778
        k(   18) = (  -0.4166667   0.2500000   0.2500000), wk =   0.0277778
        k(   19) = (   0.2500000   0.2500000  -0.0833333), wk =   0.0277778
        k(   20) = (  -1.0000000   0.6666667   0.3333333), wk =   0.0555556
        k(   21) = (  -0.7500000   0.5833333   0.2500000), wk =   0.0555556
        k(   22) = (  -0.5000000   0.5000000   0.1666667), wk =   0.0555556
        k(   23) = (  -0.5833333  -0.5833333   0.7500000), wk =   0.0277778
        k(   24) = (  -0.3333333  -0.6666667   0.6666667), wk =   0.0555556
        k(   25) = (  -0.0833333  -0.7500000   0.5833333), wk =   0.0277778
        k(   26) = (  -0.4166667  -0.4166667   0.5833333), wk =   0.0277778
        k(   27) = (   0.1666667   0.1666667   0.1666667), wk =   0.0092593
        k(   28) = (  -1.0833333   0.5833333   0.5833333), wk =   0.0277778
        k(   29) = (  -0.8333333   0.5000000   0.5000000), wk =   0.0277778
        k(   30) = (  -0.6666667  -0.6666667   1.0000000), wk =   0.0277778
        k(   31) = (  -0.4166667  -0.7500000   0.9166667), wk =   0.0277778
        k(   32) = (  -0.2500000  -0.2500000  -0.2500000), wk =   0.0046296

                       cryst. coord.
        k(    1) = (   0.0000000   0.0000000   0.0000000), wk =   0.0046296
        k(    2) = (   0.0000000   0.0000000   0.1666667), wk =   0.0277778
        k(    3) = (   0.0000000   0.0000000   0.3333333), wk =   0.0277778
        k(    4) = (   0.0000000   0.0000000  -0.5000000), wk =   0.0138889
        k(    5) = (   0.0000000   0.1666667   0.1666667), wk =   0.0277778
        k(    6) = (   0.0000000   0.1666667   0.3333333), wk =   0.0555556
        k(    7) = (   0.0000000   0.1666667  -0.5000000), wk =   0.0555556
        k(    8) = (   0.0000000   0.1666667  -0.3333333), wk =   0.0555556
        k(    9) = (   0.0000000   0.1666667  -0.1666667), wk =   0.0277778
        k(   10) = (   0.0000000   0.3333333   0.3333333), wk =   0.0277778
        k(   11) = (   0.0000000   0.3333333  -0.5000000), wk =   0.0555556
        k(   12) = (   0.0000000   0.3333333  -0.3333333), wk =   0.0277778
        k(   13) = (   0.0000000  -0.5000000  -0.5000000), wk =   0.0138889
        k(   14) = (   0.1666667   0.1666667   0.1666667), wk =   0.0092593
        k(   15) = (   0.1666667   0.1666667   0.3333333), wk =   0.0277778
        k(   16) = (   0.1666667   0.1666667  -0.5000000), wk =   0.0277778
        k(   17) = (   0.1666667   0.1666667  -0.3333333), wk =   0.0277778
        k(   18) = (   0.1666667   0.1666667  -0.1666667), wk =   0.0277778
        k(   19) = (   0.1666667   0.3333333   0.3333333), wk =   0.0277778
        k(   20) = (   0.1666667   0.3333333  -0.5000000), wk =   0.0555556
        k(   21) = (   0.1666667   0.3333333  -0.3333333), wk =   0.0555556
        k(   22) = (   0.1666667   0.3333333  -0.1666667), wk =   0.0555556
        k(   23) = (   0.1666667  -0.5000000  -0.5000000), wk =   0.0277778
        k(   24) = (   0.1666667  -0.5000000  -0.3333333), wk =   0.0555556
        k(   25) = (   0.1666667  -0.5000000  -0.1666667), wk =   0.0277778
        k(   26) = (   0.1666667  -0.3333333  -0.3333333), wk =   0.0277778
        k(   27) = (   0.3333333   0.3333333   0.3333333), wk =   0.0092593
        k(   28) = (   0.3333333   0.3333333  -0.5000000), wk =   0.0277778
        k(   29) = (   0.3333333   0.3333333  -0.3333333), wk =   0.0277778
        k(   30) = (   0.3333333  -0.5000000  -0.5000000), wk =   0.0277778
        k(   31) = (   0.3333333  -0.5000000  -0.3333333), wk =   0.0277778
        k(   32) = (  -0.5000000  -0.5000000  -0.5000000), wk =   0.0046296

     Dense  grid:    85543 G-vectors     FFT dimensions: (  90,  90,  90)

     Smooth grid:    21639 G-vectors     FFT dimensions: (  54,  54,  54)

     Dynamical RAM for                 wfc:       0.54 MB

     Dynamical RAM for     wfc (w. buffer):      12.35 MB

     Dynamical RAM for             U proj.:       0.21 MB

     Dynamical RAM for  U proj. (w. buff.):       4.75 MB

     Dynamical RAM for           str. fact:       1.96 MB

     Dynamical RAM for           local pot:       0.00 MB

     Dynamical RAM for          nlocal pot:       1.07 MB

     Dynamical RAM for                qrad:       6.37 MB

     Dynamical RAM for          rho,v,vnew:      20.60 MB

     Dynamical RAM for               rhoin:       6.87 MB

     Dynamical RAM for            rho*nmix:      20.88 MB

     Dynamical RAM for           G-vectors:       2.53 MB

     Dynamical RAM for          h,s,v(r/c):       0.12 MB

     Dynamical RAM for          <psi|beta>:       0.02 MB

     Dynamical RAM for                 psi:       1.07 MB

     Dynamical RAM for                hpsi:       1.07 MB

     Dynamical RAM for                spsi:       1.07 MB

     Dynamical RAM for      wfcinit/wfcrot:       1.09 MB

     Dynamical RAM for           addusdens:      41.99 MB

     Dynamical RAM for          addusforce:      42.00 MB

     Dynamical RAM for         addusstress:      44.49 MB

     Estimated static dynamical RAM per process >      75.79 MB

     Estimated max dynamical RAM per process >     141.16 MB

     Estimated total dynamical RAM >     763.42 MB
     Generating pointlists ...
     new r_m :   0.2063 (alat units)  1.6871 (a.u.) for type    1
     new r_m :   0.2063 (alat units)  1.6871 (a.u.) for type    2
     new r_m :   0.2063 (alat units)  1.6871 (a.u.) for type    3

     Initial potential from superposition of free atoms

     starting charge      43.9991, renormalised to      44.0000

     HUBBARD ENERGY =    0.2705  (Ry)

     STARTING HUBBARD OCCUPATIONS:

     =================== HUBBARD OCCUPATIONS ===================
     ------------------------ ATOM    1 ------------------------
     Tr[ns(  1)] (up, down, total) =   5.00000  1.00000  6.00000
     Atomic magnetic moment for atom   1 =   4.00000
     SPIN  1
     eigenvalues:
       1.000  1.000  1.000  1.000  1.000
     eigenvectors (columns):
       1.000  0.000  0.000  0.000  0.000
       0.000  1.000  0.000  0.000  0.000
       0.000  0.000  1.000  0.000  0.000
       0.000  0.000  0.000  1.000  0.000
       0.000  0.000  0.000  0.000  1.000
     occupation matrix ns (before diag.):
       1.000  0.000  0.000  0.000  0.000
       0.000  1.000  0.000  0.000  0.000
       0.000  0.000  1.000  0.000  0.000
       0.000  0.000  0.000  1.000  0.000
       0.000  0.000  0.000  0.000  1.000
     SPIN  2
     eigenvalues:
       0.200  0.200  0.200  0.200  0.200
     eigenvectors (columns):
       1.000  0.000  0.000  0.000  0.000
       0.000  1.000  0.000  0.000  0.000
       0.000  0.000  1.000  0.000  0.000
       0.000  0.000  0.000  1.000  0.000
       0.000  0.000  0.000  0.000  1.000
     occupation matrix ns (before diag.):
       0.200  0.000  0.000  0.000  0.000
       0.000  0.200  0.000  0.000  0.000
       0.000  0.000  0.200  0.000  0.000
       0.000  0.000  0.000  0.200  0.000
       0.000  0.000  0.000  0.000  0.200
     ------------------------ ATOM    2 ------------------------
     Tr[ns(  2)] (up, down, total) =   1.00000  5.00000  6.00000
     Atomic magnetic moment for atom   2 =  -4.00000
     SPIN  1
     eigenvalues:
       0.200  0.200  0.200  0.200  0.200
     eigenvectors (columns):
       1.000  0.000  0.000  0.000  0.000
       0.000  1.000  0.000  0.000  0.000
       0.000  0.000  1.000  0.000  0.000
       0.000  0.000  0.000  1.000  0.000
       0.000  0.000  0.000  0.000  1.000
     occupation matrix ns (before diag.):
       0.200  0.000  0.000  0.000  0.000
       0.000  0.200  0.000  0.000  0.000
       0.000  0.000  0.200  0.000  0.000
       0.000  0.000  0.000  0.200  0.000
       0.000  0.000  0.000  0.000  0.200
     SPIN  2
     eigenvalues:
       1.000  1.000  1.000  1.000  1.000
     eigenvectors (columns):
       1.000  0.000  0.000  0.000  0.000
       0.000  1.000  0.000  0.000  0.000
       0.000  0.000  1.000  0.000  0.000
       0.000  0.000  0.000  1.000  0.000
       0.000  0.000  0.000  0.000  1.000
     occupation matrix ns (before diag.):
       1.000  0.000  0.000  0.000  0.000
       0.000  1.000  0.000  0.000  0.000
       0.000  0.000  1.000  0.000  0.000
       0.000  0.000  0.000  1.000  0.000
       0.000  0.000  0.000  0.000  1.000

     Number of occupied Hubbard levels =   12.0000

     Atomic wfc used for Hubbard projectors are orthogonalized

     Starting wfcs are   28 randomized atomic wfcs
     Checking if some PAW data can be deallocated... 
       PAW data deallocated on    4 nodes for type:  1
       PAW data deallocated on    4 nodes for type:  2
       PAW data deallocated on    4 nodes for type:  3

     total cpu time spent up to now is        5.5 secs

     per-process dynamical memory:   101.5 Mb

     Self-consistent Calculation

     iteration #  1     ecut=    70.00 Ry     beta= 0.10
     Davidson diagonalization with overlap

---- Real-time Memory Report at c_bands before calling an iterative solver
           174 MiB given to the printing process from OS
            99 MiB allocation reported by mallinfo(arena+hblkhd)
          7935 MiB available memory on the node where the printing process lives
------------------
     ethr =  1.00E-02,  avg # of iterations =  2.0

     =================== HUBBARD OCCUPATIONS ===================
     ------------------------ ATOM    1 ------------------------
     Tr[ns(  1)] (up, down, total) =   4.99143  0.62160  5.61303
     Atomic magnetic moment for atom   1 =   4.36983
     SPIN  1
     eigenvalues:
       0.997  0.997  0.999  0.999  0.999
     eigenvectors (columns):
      -0.535 -0.844  0.028 -0.008  0.000
      -0.011  0.021  0.593  0.561  0.577
       0.024 -0.001  0.189 -0.794  0.577
       0.844 -0.535  0.008  0.028  0.000
       0.013  0.020  0.782 -0.233 -0.577
     occupation matrix ns (before diag.):
       0.997  0.000  0.000  0.000  0.000
       0.000  0.999  0.000  0.000 -0.000
       0.000  0.000  0.999 -0.000 -0.000
       0.000  0.000 -0.000  0.997 -0.000
       0.000 -0.000 -0.000 -0.000  0.999
     SPIN  2
     eigenvalues:
       0.077  0.077  0.132  0.168  0.168
     eigenvectors (columns):
       0.567 -0.821 -0.000  0.058  0.005
      -0.020 -0.043  0.577 -0.463  0.671
       0.047  0.004  0.577 -0.350 -0.736
      -0.821 -0.567  0.000  0.005 -0.058
       0.027 -0.039 -0.577 -0.812 -0.065
     occupation matrix ns (before diag.):
       0.077 -0.002 -0.002  0.000 -0.004
      -0.002  0.156 -0.012 -0.004  0.012
      -0.002 -0.012  0.156  0.004  0.012
       0.000 -0.004  0.004  0.077 -0.000
      -0.004  0.012  0.012 -0.000  0.156
     ------------------------ ATOM    2 ------------------------
     Tr[ns(  2)] (up, down, total) =   0.59695  4.99147  5.58842
     Atomic magnetic moment for atom   2 =  -4.39452
     SPIN  1
     eigenvalues:
       0.076  0.076  0.127  0.158  0.158
     eigenvectors (columns):
       0.612 -0.790 -0.000  0.051  0.004
      -0.016 -0.038  0.577 -0.459  0.674
       0.041  0.006  0.577 -0.354 -0.734
      -0.790 -0.612  0.000  0.004 -0.051
       0.025 -0.033 -0.577 -0.813 -0.060
     occupation matrix ns (before diag.):
       0.077 -0.002 -0.002  0.000 -0.003
      -0.002  0.148 -0.010 -0.003  0.010
      -0.002 -0.010  0.148  0.003  0.010
       0.000 -0.003  0.003  0.077 -0.000
      -0.003  0.010  0.010 -0.000  0.148
     SPIN  2
     eigenvalues:
       0.997  0.997  0.999  0.999  0.999
     eigenvectors (columns):
       0.570  0.821  0.000  0.024  0.007
       0.009 -0.019 -0.577  0.601 -0.553
      -0.020  0.002 -0.577  0.179  0.796
      -0.821  0.570 -0.000  0.007 -0.024
      -0.012 -0.017  0.577  0.779  0.244
     occupation matrix ns (before diag.):
       0.997  0.000  0.000  0.000  0.000
       0.000  0.999 -0.000  0.000  0.000
       0.000 -0.000  0.999 -0.000  0.000
       0.000  0.000 -0.000  0.997 -0.000
       0.000  0.000  0.000 -0.000  0.999

     Number of occupied Hubbard levels =   11.2014

     WARNING!!! Modifying starting ns matrices according to input values

     =================== HUBBARD OCCUPATIONS ===================
     ------------------------ ATOM    1 ------------------------
     Tr[ns(  1)] (up, down, total) =   4.99143  1.00000  5.99143
     Atomic magnetic moment for atom   1 =   3.99143
     SPIN  1
     eigenvalues:
       0.997  0.997  0.999  0.999  0.999
     eigenvectors (columns):
      -0.366 -0.930  0.028 -0.010  0.000
      -0.015  0.019  0.625  0.525  0.577
       0.024  0.004  0.142 -0.804  0.577
       0.930 -0.366  0.010  0.028  0.000
       0.009  0.022  0.767 -0.279 -0.577
     occupation matrix ns (before diag.):
       0.997  0.000  0.000  0.000  0.000
       0.000  0.999  0.000  0.000 -0.000
       0.000  0.000  0.999 -0.000 -0.000
       0.000  0.000 -0.000  0.997 -0.000
       0.000 -0.000 -0.000 -0.000  0.999
     SPIN  2
     eigenvalues:
      -0.000 -0.000  0.000  0.000  1.000
     eigenvectors (columns):
      -0.024 -0.570 -0.045  0.592  0.567
       0.002 -0.050  0.997  0.048 -0.020
      -0.004 -0.697  0.000 -0.716  0.047
       0.016 -0.433 -0.056  0.367 -0.821
       1.000 -0.009 -0.002  0.005  0.027
     occupation matrix ns (before diag.):
       0.322 -0.012  0.027 -0.466  0.015
      -0.012  0.000 -0.001  0.017 -0.001
       0.027 -0.001  0.002 -0.039  0.001
      -0.466  0.017 -0.039  0.675 -0.022
       0.015 -0.001  0.001 -0.022  0.001
     ------------------------ ATOM    2 ------------------------
     Tr[ns(  2)] (up, down, total) =   1.00000  4.99147  5.99147
     Atomic magnetic moment for atom   2 =  -3.99147
     SPIN  1
     eigenvalues:
      -0.000 -0.000  0.000  0.000  1.000
     eigenvectors (columns):
       0.027  0.026  0.012 -0.790  0.612
       0.000  0.754 -0.657  0.002 -0.016
       0.001 -0.656 -0.754 -0.002  0.041
      -0.011 -0.029 -0.017 -0.613 -0.790
      -1.000  0.000 -0.001 -0.014  0.025
     occupation matrix ns (before diag.):
       0.374 -0.010  0.025 -0.483  0.016
      -0.010  0.000 -0.001  0.012 -0.000
       0.025 -0.001  0.002 -0.032  0.001
      -0.483  0.012 -0.032  0.623 -0.020
       0.016 -0.000  0.001 -0.020  0.001
     SPIN  2
     eigenvalues:
       0.997  0.997  0.999  0.999  0.999
     eigenvectors (columns):
       0.575  0.817  0.000  0.023  0.009
       0.009 -0.019 -0.577  0.636 -0.512
      -0.020  0.002 -0.577  0.126  0.807
      -0.817  0.575 -0.000  0.009 -0.023
      -0.012 -0.017  0.577  0.761  0.295
     occupation matrix ns (before diag.):
       0.997  0.000  0.000  0.000  0.000
       0.000  0.999 -0.000  0.000  0.000
       0.000 -0.000  0.999 -0.000  0.000
       0.000  0.000 -0.000  0.997 -0.000
       0.000  0.000  0.000 -0.000  0.999

     Number of occupied Hubbard levels =   11.9829

     HUBBARD ENERGY =    0.0029  (Ry)

     total cpu time spent up to now is       13.0 secs

     total energy              =    -740.87098683 Ry
     estimated scf accuracy    <       2.98756350 Ry

     total magnetization       =    -0.03 Bohr mag/cell
     absolute magnetization    =     9.30 Bohr mag/cell

     iteration #  2     ecut=    70.00 Ry     beta= 0.10
     Davidson diagonalization with overlap

---- Real-time Memory Report at c_bands before calling an iterative solver
           206 MiB given to the printing process from OS
           123 MiB allocation reported by mallinfo(arena+hblkhd)
          7796 MiB available memory on the node where the printing process lives
------------------
     ethr =  6.79E-03,  avg # of iterations =  2.3

     =================== HUBBARD OCCUPATIONS ===================
     ------------------------ ATOM    1 ------------------------
     Tr[ns(  1)] (up, down, total) =   4.99028  0.73780  5.72807
     Atomic magnetic moment for atom   1 =   4.25248
     SPIN  1
     eigenvalues:
       0.997  0.997  0.999  0.999  0.999
     eigenvectors (columns):
      -0.598  0.801 -0.000 -0.029 -0.010
      -0.010 -0.023  0.577 -0.619  0.532
       0.025  0.003  0.577 -0.151 -0.802
       0.801  0.598  0.000 -0.010  0.029
       0.015 -0.020 -0.577 -0.770 -0.270
     occupation matrix ns (before diag.):
       0.997  0.000  0.000  0.000  0.000
       0.000  0.999 -0.000  0.000  0.000
       0.000 -0.000  0.999 -0.000  0.000
       0.000  0.000 -0.000  0.997 -0.000
       0.000  0.000  0.000 -0.000  0.999
     SPIN  2
     eigenvalues:
       0.017  0.019  0.019  0.341  0.341
     eigenvectors (columns):
       0.000 -0.079 -0.012 -0.961 -0.265
       0.577  0.508 -0.636 -0.016 -0.063
       0.577  0.296  0.758 -0.046  0.046
      -0.000 -0.012  0.079  0.265 -0.961
      -0.577  0.805  0.122 -0.063 -0.017
     occupation matrix ns (before diag.):
       0.339  0.010  0.010  0.000  0.021
       0.010  0.020 -0.001  0.018  0.001
       0.010 -0.001  0.020 -0.018  0.001
       0.000  0.018 -0.018  0.339 -0.000
       0.021  0.001  0.001 -0.000  0.020
     ------------------------ ATOM    2 ------------------------
     Tr[ns(  2)] (up, down, total) =   0.73048  4.99024  5.72072
     Atomic magnetic moment for atom   2 =  -4.25977
     SPIN  1
     eigenvalues:
       0.018  0.019  0.019  0.338  0.338
     eigenvectors (columns):
      -0.000  0.069  0.025  0.637 -0.768
      -0.577 -0.625  0.522 -0.021 -0.056
      -0.577 -0.139 -0.802  0.059  0.010
       0.000  0.025 -0.069 -0.768 -0.637
       0.577 -0.764 -0.281  0.038 -0.046
     occupation matrix ns (before diag.):
       0.336  0.009  0.009  0.000  0.019
       0.009  0.019 -0.001  0.016  0.001
       0.009 -0.001  0.019 -0.016  0.001
       0.000  0.016 -0.016  0.336 -0.000
       0.019  0.001  0.001 -0.000  0.019
     SPIN  2
     eigenvalues:
       0.997  0.997  0.999  0.999  0.999
     eigenvectors (columns):
      -0.561  0.827 -0.000 -0.030 -0.009
      -0.011 -0.023  0.577 -0.587  0.567
       0.025  0.002  0.577 -0.198 -0.792
       0.827  0.561  0.000 -0.009  0.030
       0.014 -0.021 -0.577 -0.785 -0.225
     occupation matrix ns (before diag.):
       0.997  0.000  0.000  0.000  0.000
       0.000  0.999 -0.000  0.000  0.000
       0.000 -0.000  0.999 -0.000  0.000
       0.000  0.000 -0.000  0.997 -0.000
       0.000  0.000  0.000 -0.000  0.999

     Number of occupied Hubbard levels =   11.4488

     HUBBARD ENERGY =    0.0520  (Ry)

     total cpu time spent up to now is       19.9 secs

     total energy              =    -740.74409007 Ry
     estimated scf accuracy    <       2.32704027 Ry

     total magnetization       =    -0.00 Bohr mag/cell
     absolute magnetization    =     9.02 Bohr mag/cell

     iteration #  3     ecut=    70.00 Ry     beta= 0.10
     Davidson diagonalization with overlap

---- Real-time Memory Report at c_bands before calling an iterative solver
           207 MiB given to the printing process from OS
           124 MiB allocation reported by mallinfo(arena+hblkhd)
          7787 MiB available memory on the node where the printing process lives
------------------
     ethr =  5.29E-03,  avg # of iterations =  1.5

     =================== HUBBARD OCCUPATIONS ===================
     ------------------------ ATOM    1 ------------------------
     Tr[ns(  1)] (up, down, total) =   4.98902  0.81165  5.80066
     Atomic magnetic moment for atom   1 =   4.17737
     SPIN  1
     eigenvalues:
       0.997  0.997  0.999  0.999  0.999
     eigenvectors (columns):
      -0.628  0.778 -0.000 -0.006 -0.002
      -0.002 -0.005  0.577 -0.586  0.568
       0.005  0.001  0.577 -0.199 -0.792
       0.778  0.628  0.000 -0.002  0.006
       0.003 -0.004 -0.577 -0.785 -0.224
     occupation matrix ns (before diag.):
       0.997  0.000  0.000  0.000  0.000
       0.000  0.999 -0.000  0.000  0.000
       0.000 -0.000  0.999 -0.000  0.000
       0.000  0.000 -0.000  0.997 -0.000
       0.000  0.000  0.000 -0.000  0.999
     SPIN  2
     eigenvalues:
       0.021  0.024  0.024  0.371  0.371
     eigenvectors (columns):
      -0.000  0.065  0.052  0.744  0.663
      -0.577 -0.756  0.302 -0.014  0.067
      -0.577  0.117 -0.805  0.065 -0.021
       0.000  0.052 -0.065 -0.663  0.744
       0.577 -0.639 -0.504  0.051  0.045
     occupation matrix ns (before diag.):
       0.369  0.012  0.012  0.000  0.024
       0.012  0.025 -0.002  0.020  0.002
       0.012 -0.002  0.025 -0.020  0.002
       0.000  0.020 -0.020  0.369 -0.000
       0.024  0.002  0.002 -0.000  0.025
     ------------------------ ATOM    2 ------------------------
     Tr[ns(  2)] (up, down, total) =   0.79534  4.98902  5.78436
     Atomic magnetic moment for atom   2 =  -4.19368
     SPIN  1
     eigenvalues:
       0.022  0.023  0.023  0.364  0.364
     eigenvectors (columns):
      -0.000 -0.079 -0.007  0.545  0.835
      -0.577  0.463 -0.669 -0.029  0.058
      -0.577  0.348  0.736  0.065 -0.004
       0.000 -0.007  0.079 -0.835  0.545
       0.577  0.811  0.067  0.036  0.054
     occupation matrix ns (before diag.):
       0.362  0.011  0.011  0.000  0.022
       0.011  0.024 -0.001  0.019  0.001
       0.011 -0.001  0.024 -0.019  0.001
       0.000  0.019 -0.019  0.362 -0.000
       0.022  0.001  0.001 -0.000  0.024
     SPIN  2
     eigenvalues:
       0.997  0.997  0.999  0.999  0.999
     eigenvectors (columns):
      -0.763  0.647 -0.000 -0.006  0.001
      -0.001 -0.005  0.577 -0.549 -0.604
       0.005  0.002  0.577 -0.248  0.778
       0.647  0.763  0.000 -0.001 -0.006
       0.004 -0.003 -0.577 -0.798  0.174
     occupation matrix ns (before diag.):
       0.997  0.000  0.000  0.000  0.000
       0.000  0.999 -0.000  0.000  0.000
       0.000 -0.000  0.999 -0.000  0.000
       0.000  0.000 -0.000  0.997 -0.000
       0.000  0.000  0.000 -0.000  0.999

     Number of occupied Hubbard levels =   11.5850

     negative rho (up, down):  2.315E-04 2.279E-04

     HUBBARD ENERGY =    0.1684  (Ry)

     total cpu time spent up to now is       26.6 secs

     total energy              =    -741.20866375 Ry
     estimated scf accuracy    <       1.55994199 Ry

     total magnetization       =    -0.01 Bohr mag/cell
     absolute magnetization    =     8.86 Bohr mag/cell

     iteration #  4     ecut=    70.00 Ry     beta= 0.10
     Davidson diagonalization with overlap

---- Real-time Memory Report at c_bands before calling an iterative solver
           208 MiB given to the printing process from OS
           124 MiB allocation reported by mallinfo(arena+hblkhd)
          7786 MiB available memory on the node where the printing process lives
------------------
     ethr =  3.55E-03,  avg # of iterations =  2.0

     =================== HUBBARD OCCUPATIONS ===================
     ------------------------ ATOM    1 ------------------------
     Tr[ns(  1)] (up, down, total) =   4.98710  1.14753  6.13463
     Atomic magnetic moment for atom   1 =   3.83957
     SPIN  1
     eigenvalues:
       0.996  0.996  0.999  0.999  0.999
     eigenvectors (columns):
       0.368  0.926 -0.077  0.014  0.000
      -0.039  0.050  0.530  0.618 -0.577
       0.063  0.009  0.270 -0.768 -0.577
      -0.926  0.368 -0.014 -0.077 -0.000
       0.023  0.059  0.800 -0.150  0.577
     occupation matrix ns (before diag.):
       0.996 -0.000 -0.000  0.000 -0.000
      -0.000  0.999  0.000 -0.000 -0.000
      -0.000  0.000  0.999  0.000 -0.000
       0.000 -0.000  0.000  0.996 -0.000
      -0.000 -0.000 -0.000 -0.000  0.999
     SPIN  2
     eigenvalues:
       0.084  0.087  0.087  0.445  0.445
     eigenvectors (columns):
      -0.000 -0.094 -0.008  0.382  0.919
      -0.577  0.465 -0.667 -0.047  0.061
      -0.577  0.345  0.736  0.076  0.010
       0.000 -0.008  0.094 -0.919  0.382
       0.577  0.810  0.069  0.030  0.071
     occupation matrix ns (before diag.):
       0.442  0.014  0.014  0.000  0.027
       0.014  0.088 -0.002  0.024  0.002
       0.014 -0.002  0.088 -0.024  0.002
       0.000  0.024 -0.024  0.442 -0.000
       0.027  0.002  0.002 -0.000  0.088
     ------------------------ ATOM    2 ------------------------
     Tr[ns(  2)] (up, down, total) =   1.17103  4.98713  6.15816
     Atomic magnetic moment for atom   2 =  -3.81611
     SPIN  1
     eigenvalues:
       0.095  0.097  0.097  0.441  0.441
     eigenvectors (columns):
       0.000 -0.102 -0.011  0.240 -0.965
       0.577  0.479 -0.656 -0.060 -0.058
       0.577  0.329  0.743  0.081 -0.023
       0.000 -0.011  0.102 -0.965 -0.240
      -0.577  0.808  0.086  0.020 -0.081
     occupation matrix ns (before diag.):
       0.437  0.014  0.014  0.000  0.029
       0.014  0.099 -0.002  0.025  0.002
       0.014 -0.002  0.099 -0.025  0.002
       0.000  0.025 -0.025  0.437 -0.000
       0.029  0.002  0.002 -0.000  0.099
     SPIN  2
     eigenvalues:
       0.996  0.996  0.999  0.999  0.999
     eigenvectors (columns):
       0.491  0.867 -0.087  0.009  0.000
      -0.036  0.062  0.480  0.656 -0.577
       0.072  0.001  0.328 -0.744 -0.577
      -0.867  0.491 -0.009 -0.087 -0.000
       0.035  0.062  0.809 -0.088  0.577
     occupation matrix ns (before diag.):
       0.996 -0.000 -0.000  0.000 -0.000
      -0.000  0.999  0.000 -0.000 -0.000
      -0.000  0.000  0.999  0.000 -0.000
       0.000 -0.000  0.000  0.996 -0.000
      -0.000 -0.000 -0.000 -0.000  0.999

     Number of occupied Hubbard levels =   12.2928

     negative rho (up, down):  4.788E-04 4.715E-04

     HUBBARD ENERGY =    0.2002  (Ry)

     total cpu time spent up to now is       32.6 secs

     total energy              =    -741.34079196 Ry
     estimated scf accuracy    <       0.22277742 Ry

     total magnetization       =     0.03 Bohr mag/cell
     absolute magnetization    =     7.99 Bohr mag/cell

     iteration #  5     ecut=    70.00 Ry     beta= 0.10
     Davidson diagonalization with overlap

---- Real-time Memory Report at c_bands before calling an iterative solver
           208 MiB given to the printing process from OS
           125 MiB allocation reported by mallinfo(arena+hblkhd)
          7784 MiB available memory on the node where the printing process lives
------------------
     ethr =  5.06E-04,  avg # of iterations =  9.1

     =================== HUBBARD OCCUPATIONS ===================
     ------------------------ ATOM    1 ------------------------
     Tr[ns(  1)] (up, down, total) =   4.97646  1.42509  6.40155
     Atomic magnetic moment for atom   1 =   3.55137
     SPIN  1
     eigenvalues:
       0.991  0.991  0.998  0.998  0.998
     eigenvectors (columns):
       0.595 -0.801 -0.072  0.012  0.000
      -0.024 -0.055  0.521  0.626 -0.577
       0.059  0.007  0.282 -0.764 -0.577
      -0.801 -0.595 -0.012 -0.072 -0.000
       0.036 -0.048  0.803 -0.138  0.577
     occupation matrix ns (before diag.):
       0.991 -0.000 -0.000  0.000 -0.000
      -0.000  0.998  0.000 -0.000 -0.000
      -0.000  0.000  0.998  0.000 -0.000
       0.000 -0.000  0.000  0.991 -0.000
      -0.000 -0.000 -0.000 -0.000  0.998
     SPIN  2
     eigenvalues:
       0.102  0.102  0.111  0.554  0.554
     eigenvectors (columns):
      -0.043  0.004  0.000 -0.553  0.832
       0.476  0.662 -0.577  0.016  0.032
       0.336 -0.743 -0.577 -0.036 -0.002
      -0.004 -0.043  0.000  0.832  0.553
       0.812 -0.081  0.577 -0.020  0.030
     occupation matrix ns (before diag.):
       0.554  0.008  0.008  0.000  0.016
       0.008  0.106  0.003  0.014 -0.003
       0.008  0.003  0.106 -0.014 -0.003
       0.000  0.014 -0.014  0.554 -0.000
       0.016 -0.003 -0.003 -0.000  0.106
     ------------------------ ATOM    2 ------------------------
     Tr[ns(  2)] (up, down, total) =   1.46186  4.97656  6.43842
     Atomic magnetic moment for atom   2 =  -3.51470
     SPIN  1
     eigenvalues:
       0.115  0.115  0.123  0.555  0.555
     eigenvectors (columns):
      -0.047  0.005  0.000  0.781  0.622
       0.475  0.663 -0.577 -0.006  0.038
       0.337 -0.743 -0.577  0.036 -0.014
      -0.005 -0.047  0.000 -0.622  0.781
       0.812 -0.079  0.577  0.030  0.024
     occupation matrix ns (before diag.):
       0.554  0.009  0.009  0.000  0.017
       0.009  0.118  0.003  0.015 -0.003
       0.009  0.003  0.118 -0.015 -0.003
       0.000  0.015 -0.015  0.554 -0.000
       0.017 -0.003 -0.003 -0.000  0.118
     SPIN  2
     eigenvalues:
       0.991  0.991  0.998  0.998  0.998
     eigenvectors (columns):
       0.256 -0.964  0.074  0.013 -0.000
      -0.043 -0.043 -0.520  0.626  0.577
       0.059 -0.016 -0.282 -0.764  0.577
      -0.964 -0.256  0.013 -0.074 -0.000
       0.016 -0.059 -0.803 -0.137 -0.577
     occupation matrix ns (before diag.):
       0.991 -0.000 -0.000  0.000 -0.000
      -0.000  0.998  0.000 -0.000 -0.000
      -0.000  0.000  0.998  0.000 -0.000
       0.000 -0.000  0.000  0.991 -0.000
      -0.000 -0.000 -0.000 -0.000  0.998

     Number of occupied Hubbard levels =   12.8400

     negative rho (up, down):  5.892E-04 5.756E-04

     HUBBARD ENERGY =    0.1798  (Ry)

     total cpu time spent up to now is       41.7 secs

     total energy              =    -741.51701259 Ry
     estimated scf accuracy    <       0.47958247 Ry

     total magnetization       =     0.04 Bohr mag/cell
     absolute magnetization    =     7.40 Bohr mag/cell

     iteration #  6     ecut=    70.00 Ry     beta= 0.10
     Davidson diagonalization with overlap

---- Real-time Memory Report at c_bands before calling an iterative solver
           209 MiB given to the printing process from OS
           126 MiB allocation reported by mallinfo(arena+hblkhd)
          7778 MiB available memory on the node where the printing process lives
------------------
     ethr =  5.06E-04,  avg # of iterations =  1.5

     =================== HUBBARD OCCUPATIONS ===================
     ------------------------ ATOM    1 ------------------------
     Tr[ns(  1)] (up, down, total) =   4.97562  1.50853  6.48416
     Atomic magnetic moment for atom   1 =   3.46709
     SPIN  1
     eigenvalues:
       0.990  0.990  0.999  0.999  0.999
     eigenvectors (columns):
       0.604  0.794 -0.064  0.013 -0.000
      -0.020  0.049  0.538  0.612  0.577
       0.053 -0.007  0.260 -0.772  0.577
      -0.794  0.604 -0.013 -0.064  0.000
       0.032  0.042  0.799 -0.160 -0.577
     occupation matrix ns (before diag.):
       0.990 -0.000 -0.000  0.000 -0.000
      -0.000  0.999  0.000 -0.000 -0.000
      -0.000  0.000  0.999  0.000 -0.000
       0.000 -0.000  0.000  0.990 -0.000
      -0.000 -0.000 -0.000 -0.000  0.999
     SPIN  2
     eigenvalues:
       0.132  0.132  0.141  0.552  0.552
     eigenvectors (columns):
      -0.043  0.008  0.000 -0.436 -0.899
       0.531  0.620  0.577  0.020 -0.030
       0.271 -0.769  0.577 -0.036 -0.003
      -0.008 -0.043 -0.000  0.899 -0.436
       0.802 -0.150 -0.577 -0.016 -0.032
     occupation matrix ns (before diag.):
       0.551  0.008  0.008  0.000  0.015
       0.008  0.135  0.003  0.013 -0.003
       0.008  0.003  0.135 -0.013 -0.003
       0.000  0.013 -0.013  0.551 -0.000
       0.015 -0.003 -0.003 -0.000  0.135
     ------------------------ ATOM    2 ------------------------
     Tr[ns(  2)] (up, down, total) =   1.56994  4.97593  6.54587
     Atomic magnetic moment for atom   2 =  -3.40599
     SPIN  1
     eigenvalues:
       0.145  0.145  0.153  0.563  0.563
     eigenvectors (columns):
      -0.054  0.010  0.000 -0.506  0.861
       0.528  0.621 -0.577  0.022  0.039
       0.274 -0.768 -0.577 -0.045 -0.000
      -0.010 -0.054  0.000  0.861  0.506
       0.802 -0.147  0.577 -0.023  0.039
     occupation matrix ns (before diag.):
       0.562  0.009  0.009  0.000  0.019
       0.009  0.149  0.002  0.016 -0.002
       0.009  0.002  0.149 -0.016 -0.002
       0.000  0.016 -0.016  0.562 -0.000
       0.019 -0.002 -0.002 -0.000  0.149
     SPIN  2
     eigenvalues:
       0.990  0.990  0.999  0.999  0.999
     eigenvectors (columns):
       0.469 -0.881 -0.064  0.011  0.000
      -0.028 -0.045  0.521  0.627 -0.577
       0.053 -0.002  0.282 -0.764 -0.577
      -0.881 -0.469 -0.011 -0.064  0.000
       0.025 -0.047  0.803 -0.138  0.577
     occupation matrix ns (before diag.):
       0.990 -0.000 -0.000  0.000 -0.000
      -0.000  0.999  0.000 -0.000 -0.000
      -0.000  0.000  0.999  0.000 -0.000
       0.000 -0.000  0.000  0.990 -0.000
      -0.000 -0.000 -0.000 -0.000  0.999

     Number of occupied Hubbard levels =   13.0300

     negative rho (up, down):  3.785E-04 3.795E-04

     HUBBARD ENERGY =    0.2413  (Ry)

     total cpu time spent up to now is       48.3 secs

     total energy              =    -741.37715252 Ry
     estimated scf accuracy    <       0.78224175 Ry

     total magnetization       =     0.07 Bohr mag/cell
     absolute magnetization    =     7.23 Bohr mag/cell

     iteration #  7     ecut=    70.00 Ry     beta= 0.10
     Davidson diagonalization with overlap

---- Real-time Memory Report at c_bands before calling an iterative solver
           210 MiB given to the printing process from OS
           126 MiB allocation reported by mallinfo(arena+hblkhd)
          7778 MiB available memory on the node where the printing process lives
------------------
     ethr =  5.06E-04,  avg # of iterations =  2.0

     =================== HUBBARD OCCUPATIONS ===================
     ------------------------ ATOM    1 ------------------------
     Tr[ns(  1)] (up, down, total) =   4.97296  1.39026  6.36322
     Atomic magnetic moment for atom   1 =   3.58270
     SPIN  1
     eigenvalues:
       0.990  0.990  0.998  0.998  0.998
     eigenvectors (columns):
      -0.631 -0.771 -0.085  0.007  0.000
       0.025 -0.065  0.459  0.672 -0.577
      -0.069  0.011  0.352 -0.733 -0.577
       0.771 -0.631 -0.007 -0.085  0.000
      -0.044 -0.054  0.811 -0.062  0.577
     occupation matrix ns (before diag.):
       0.990 -0.000 -0.000  0.000 -0.001
      -0.000  0.998  0.000 -0.000 -0.000
      -0.000  0.000  0.998  0.000 -0.000
       0.000 -0.000  0.000  0.990 -0.000
      -0.001 -0.000 -0.000 -0.000  0.998
     SPIN  2
     eigenvalues:
       0.063  0.063  0.065  0.599  0.599
     eigenvectors (columns):
      -0.058  0.010  0.000 -0.482  0.874
       0.524  0.624 -0.577  0.025  0.041
       0.279 -0.766 -0.577 -0.048  0.001
      -0.010 -0.058  0.000  0.874  0.482
       0.803 -0.142  0.577 -0.023  0.042
     occupation matrix ns (before diag.):
       0.597  0.013  0.013  0.000  0.026
       0.013  0.065  0.000  0.022 -0.000
       0.013  0.000  0.065 -0.022 -0.000
       0.000  0.022 -0.022  0.597 -0.000
       0.026 -0.000 -0.000 -0.000  0.065
     ------------------------ ATOM    2 ------------------------
     Tr[ns(  2)] (up, down, total) =   1.34490  4.97316  6.31806
     Atomic magnetic moment for atom   2 =  -3.62825
     SPIN  1
     eigenvalues:
       0.070  0.070  0.075  0.565  0.565
     eigenvectors (columns):
       0.052 -0.006 -0.000 -0.260 -0.964
      -0.486 -0.655  0.577  0.030 -0.030
      -0.324  0.748  0.577 -0.041 -0.011
       0.006  0.052 -0.000  0.964 -0.260
      -0.810  0.093 -0.577 -0.011 -0.041
     occupation matrix ns (before diag.):
       0.563  0.011  0.011  0.000  0.021
       0.011  0.073  0.001  0.018 -0.001
       0.011  0.001  0.073 -0.018 -0.001
       0.000  0.018 -0.018  0.563 -0.000
       0.021 -0.001 -0.001 -0.000  0.073
     SPIN  2
     eigenvalues:
       0.990  0.990  0.998  0.998  0.998
     eigenvectors (columns):
       0.509 -0.857 -0.083  0.015  0.000
      -0.034 -0.060  0.529  0.618 -0.577
       0.069  0.001  0.270 -0.767 -0.577
      -0.857 -0.509 -0.015 -0.083  0.000
       0.035 -0.059  0.800 -0.150  0.577
     occupation matrix ns (before diag.):
       0.990 -0.000 -0.000  0.000 -0.001
      -0.000  0.998  0.000 -0.000 -0.000
      -0.000  0.000  0.998  0.000 -0.000
       0.000 -0.000  0.000  0.990 -0.000
      -0.001 -0.000 -0.000 -0.000  0.998

     Number of occupied Hubbard levels =   12.6813

     negative rho (up, down):  3.701E-04 3.695E-04

     HUBBARD ENERGY =    0.2423  (Ry)

     total cpu time spent up to now is       55.4 secs

     total energy              =    -741.40906770 Ry
     estimated scf accuracy    <       0.19382244 Ry

     total magnetization       =    -0.06 Bohr mag/cell
     absolute magnetization    =     7.48 Bohr mag/cell

     iteration #  8     ecut=    70.00 Ry     beta= 0.10
     Davidson diagonalization with overlap

---- Real-time Memory Report at c_bands before calling an iterative solver
           210 MiB given to the printing process from OS
           127 MiB allocation reported by mallinfo(arena+hblkhd)
          7780 MiB available memory on the node where the printing process lives
------------------
     ethr =  4.41E-04,  avg # of iterations =  1.7

     =================== HUBBARD OCCUPATIONS ===================
     ------------------------ ATOM    1 ------------------------
     Tr[ns(  1)] (up, down, total) =   4.97235  1.38545  6.35780
     Atomic magnetic moment for atom   1 =   3.58690
     SPIN  1
     eigenvalues:
       0.990  0.990  0.998  0.998  0.998
     eigenvectors (columns):
       0.378  0.922 -0.084  0.014  0.000
      -0.043  0.055  0.514  0.631 -0.577
       0.069  0.009  0.289 -0.760 -0.577
      -0.922  0.378 -0.014 -0.084  0.000
       0.026  0.065  0.803 -0.130  0.577
     occupation matrix ns (before diag.):
       0.990 -0.000 -0.000  0.000 -0.001
      -0.000  0.998  0.000 -0.000 -0.000
      -0.000  0.000  0.998  0.000 -0.000
       0.000 -0.000  0.000  0.990 -0.000
      -0.001 -0.000 -0.000 -0.000  0.998
     SPIN  2
     eigenvalues:
       0.060  0.060  0.061  0.602  0.602
     eigenvectors (columns):
      -0.061  0.008  0.000 -0.517  0.854
       0.492  0.650 -0.577  0.024  0.044
       0.317 -0.751 -0.577 -0.050 -0.001
      -0.008 -0.061  0.000  0.854  0.517
       0.809 -0.101  0.577 -0.026  0.043
     occupation matrix ns (before diag.):
       0.600  0.014  0.014  0.000  0.027
       0.014  0.062 -0.000  0.024  0.000
       0.014 -0.000  0.062 -0.024  0.000
       0.000  0.024 -0.024  0.600 -0.000
       0.027  0.000  0.000 -0.000  0.062
     ------------------------ ATOM    2 ------------------------
     Tr[ns(  2)] (up, down, total) =   1.33465  4.97265  6.30730
     Atomic magnetic moment for atom   2 =  -3.63800
     SPIN  1
     eigenvalues:
       0.066  0.066  0.069  0.567  0.567
     eigenvectors (columns):
      -0.055  0.009 -0.000 -0.403 -0.913
       0.521  0.627  0.577  0.027 -0.037
       0.282 -0.765  0.577 -0.045 -0.005
      -0.009 -0.055 -0.000  0.913 -0.403
       0.804 -0.138 -0.577 -0.018 -0.042
     occupation matrix ns (before diag.):
       0.565  0.011  0.011  0.000  0.023
       0.011  0.068  0.001  0.020 -0.001
       0.011  0.001  0.068 -0.020 -0.001
       0.000  0.020 -0.020  0.565 -0.000
       0.023 -0.001 -0.001 -0.000  0.068
     SPIN  2
     eigenvalues:
       0.990  0.990  0.998  0.998  0.998
     eigenvectors (columns):
       0.571 -0.817 -0.083  0.012  0.000
      -0.029 -0.062  0.505  0.638 -0.577
       0.068  0.006  0.301 -0.756 -0.577
      -0.817 -0.571 -0.012 -0.083  0.000
       0.039 -0.056  0.805 -0.118  0.577
     occupation matrix ns (before diag.):
       0.990 -0.000 -0.000  0.000 -0.001
      -0.000  0.998  0.000 -0.000 -0.000
      -0.000  0.000  0.998  0.000 -0.000
       0.000 -0.000  0.000  0.990 -0.000
      -0.001 -0.000 -0.000 -0.000  0.998

     Number of occupied Hubbard levels =   12.6651

     negative rho (up, down):  3.689E-04 3.687E-04

     HUBBARD ENERGY =    0.2427  (Ry)

     total cpu time spent up to now is       62.4 secs

     total energy              =    -741.41368376 Ry
     estimated scf accuracy    <       0.14600120 Ry

     total magnetization       =    -0.07 Bohr mag/cell
     absolute magnetization    =     7.47 Bohr mag/cell

     iteration #  9     ecut=    70.00 Ry     beta= 0.10
     Davidson diagonalization with overlap

---- Real-time Memory Report at c_bands before calling an iterative solver
           211 MiB given to the printing process from OS
           128 MiB allocation reported by mallinfo(arena+hblkhd)
          7779 MiB available memory on the node where the printing process lives
------------------
     ethr =  3.32E-04,  avg # of iterations =  1.6

     =================== HUBBARD OCCUPATIONS ===================
     ------------------------ ATOM    1 ------------------------
     Tr[ns(  1)] (up, down, total) =   4.97230  1.38407  6.35637
     Atomic magnetic moment for atom   1 =   3.58823
     SPIN  1
     eigenvalues:
       0.990  0.990  0.998  0.998  0.998
     eigenvectors (columns):
       0.452 -0.888 -0.086  0.013  0.000
      -0.039 -0.059  0.510  0.634 -0.577
       0.071 -0.004  0.294 -0.758 -0.577
      -0.888 -0.452 -0.013 -0.086  0.000
       0.032 -0.063  0.804 -0.124  0.577
     occupation matrix ns (before diag.):
       0.990 -0.000 -0.000  0.000 -0.001
      -0.000  0.998  0.000 -0.000 -0.000
      -0.000  0.000  0.998  0.000 -0.000
       0.000 -0.000  0.000  0.990 -0.000
      -0.001 -0.000 -0.000 -0.000  0.998
     SPIN  2
     eigenvalues:
       0.060  0.060  0.061  0.602  0.602
     eigenvectors (columns):
       0.061 -0.008  0.000 -0.623  0.780
      -0.493 -0.649 -0.577  0.018  0.047
      -0.315  0.752 -0.577 -0.050 -0.008
       0.008  0.061  0.000  0.780  0.623
      -0.808  0.103  0.577 -0.031  0.039
     occupation matrix ns (before diag.):
       0.600  0.014  0.014  0.000  0.027
       0.014  0.061 -0.000  0.024  0.000
       0.014 -0.000  0.061 -0.024  0.000
       0.000  0.024 -0.024  0.600 -0.000
       0.027  0.000  0.000 -0.000  0.061
     ------------------------ ATOM    2 ------------------------
     Tr[ns(  2)] (up, down, total) =   1.33380  4.97258  6.30638
     Atomic magnetic moment for atom   2 =  -3.63879
     SPIN  1
     eigenvalues:
       0.066  0.066  0.069  0.567  0.567
     eigenvectors (columns):
      -0.056  0.005  0.000 -0.324  0.944
       0.469  0.667 -0.577  0.030  0.035
       0.343 -0.739 -0.577 -0.045  0.009
      -0.005 -0.056  0.000  0.944  0.324
       0.812 -0.073  0.577 -0.015  0.044
     occupation matrix ns (before diag.):
       0.565  0.012  0.012  0.000  0.023
       0.012  0.068  0.001  0.020 -0.001
       0.012  0.001  0.068 -0.020 -0.001
       0.000  0.020 -0.020  0.565 -0.000
       0.023 -0.001 -0.001 -0.000  0.068
     SPIN  2
     eigenvalues:
       0.990  0.990  0.998  0.998  0.998
     eigenvectors (columns):
       0.540 -0.838 -0.084  0.013  0.000
      -0.032 -0.062  0.510  0.634 -0.577
       0.069  0.003  0.294 -0.759 -0.577
      -0.838 -0.540 -0.013 -0.084 -0.000
       0.038 -0.058  0.804 -0.125  0.577
     occupation matrix ns (before diag.):
       0.990 -0.000 -0.000  0.000 -0.001
      -0.000  0.998  0.000 -0.000 -0.000
      -0.000  0.000  0.998  0.000 -0.000
       0.000 -0.000  0.000  0.990 -0.000
      -0.001 -0.000 -0.000 -0.000  0.998

     Number of occupied Hubbard levels =   12.6627

     negative rho (up, down):  3.214E-04 3.160E-04

     HUBBARD ENERGY =    0.2420  (Ry)

     total cpu time spent up to now is       70.0 secs

     total energy              =    -741.40384410 Ry
     estimated scf accuracy    <       0.11202954 Ry

     total magnetization       =    -0.07 Bohr mag/cell
     absolute magnetization    =     7.46 Bohr mag/cell

     iteration # 10     ecut=    70.00 Ry     beta= 0.10
     Davidson diagonalization with overlap

---- Real-time Memory Report at c_bands before calling an iterative solver
           212 MiB given to the printing process from OS
           128 MiB allocation reported by mallinfo(arena+hblkhd)
          7660 MiB available memory on the node where the printing process lives
------------------
     ethr =  2.55E-04,  avg # of iterations =  1.4

     =================== HUBBARD OCCUPATIONS ===================
     ------------------------ ATOM    1 ------------------------
     Tr[ns(  1)] (up, down, total) =   4.97259  1.35633  6.32893
     Atomic magnetic moment for atom   1 =   3.61626
     SPIN  1
     eigenvalues:
       0.990  0.990  0.997  0.997  0.998
     eigenvectors (columns):
       0.489 -0.868 -0.087  0.011  0.000
      -0.036 -0.062  0.495  0.645 -0.577
       0.072 -0.001  0.312 -0.751 -0.577
      -0.868 -0.489 -0.011 -0.087 -0.000
       0.035 -0.062  0.806 -0.106  0.577
     occupation matrix ns (before diag.):
       0.990 -0.000 -0.000  0.000 -0.001
      -0.000  0.997  0.000 -0.000 -0.000
      -0.000  0.000  0.997  0.000 -0.000
       0.000 -0.000  0.000  0.990 -0.000
      -0.001 -0.000 -0.000 -0.000  0.997
     SPIN  2
     eigenvalues:
       0.049  0.049  0.050  0.604  0.604
     eigenvectors (columns):
      -0.065  0.002  0.000 -0.736  0.674
       0.432  0.691 -0.577  0.012  0.052
       0.382 -0.720 -0.577 -0.051 -0.016
      -0.002 -0.065  0.000  0.674  0.736
       0.814 -0.029  0.577 -0.039  0.036
     occupation matrix ns (before diag.):
       0.601  0.015  0.015  0.000  0.029
       0.015  0.051 -0.001  0.026  0.001
       0.015 -0.001  0.051 -0.026  0.001
       0.000  0.026 -0.026  0.601 -0.000
       0.029  0.001  0.001 -0.000  0.051
     ------------------------ ATOM    2 ------------------------
     Tr[ns(  2)] (up, down, total) =   1.28448  4.97337  6.25785
     Atomic magnetic moment for atom   2 =  -3.68888
     SPIN  1
     eigenvalues:
       0.053  0.053  0.054  0.562  0.562
     eigenvectors (columns):
      -0.061  0.005  0.000 -0.554  0.830
       0.463  0.671 -0.577  0.022  0.045
       0.349 -0.736 -0.577 -0.050 -0.003
      -0.005 -0.061  0.000  0.830  0.554
       0.812 -0.066  0.577 -0.028  0.042
     occupation matrix ns (before diag.):
       0.560  0.013  0.013  0.000  0.026
       0.013  0.055 -0.000  0.022  0.000
       0.013 -0.000  0.055 -0.022  0.000
       0.000  0.022 -0.022  0.560 -0.000
       0.026  0.000  0.000 -0.000  0.055
     SPIN  2
     eigenvalues:
       0.990  0.990  0.998  0.998  0.998
     eigenvectors (columns):
       0.522  0.849  0.084  0.009 -0.000
      -0.033  0.060 -0.483  0.655  0.577
       0.069 -0.002 -0.325 -0.746  0.577
      -0.849  0.522  0.009 -0.084  0.000
       0.036  0.058 -0.808 -0.091 -0.577
     occupation matrix ns (before diag.):
       0.990 -0.000 -0.000  0.000 -0.000
      -0.000  0.998  0.000 -0.000 -0.000
      -0.000  0.000  0.998  0.000 -0.000
       0.000 -0.000  0.000  0.990 -0.000
      -0.000 -0.000 -0.000 -0.000  0.998

     Number of occupied Hubbard levels =   12.5868

     negative rho (up, down):  3.184E-04 3.163E-04

     HUBBARD ENERGY =    0.2438  (Ry)

     total cpu time spent up to now is       76.8 secs

     total energy              =    -741.40796159 Ry
     estimated scf accuracy    <       0.05961277 Ry

     total magnetization       =    -0.09 Bohr mag/cell
     absolute magnetization    =     7.52 Bohr mag/cell

     iteration # 11     ecut=    70.00 Ry     beta= 0.10
     Davidson diagonalization with overlap

---- Real-time Memory Report at c_bands before calling an iterative solver
           212 MiB given to the printing process from OS
           128 MiB allocation reported by mallinfo(arena+hblkhd)
          7707 MiB available memory on the node where the printing process lives
------------------
     ethr =  1.35E-04,  avg # of iterations =  1.4

     =================== HUBBARD OCCUPATIONS ===================
     ------------------------ ATOM    1 ------------------------
     Tr[ns(  1)] (up, down, total) =   4.97253  1.36774  6.34027
     Atomic magnetic moment for atom   1 =   3.60478
     SPIN  1
     eigenvalues:
       0.990  0.990  0.997  0.997  0.998
     eigenvectors (columns):
       0.667 -0.740 -0.087  0.014  0.000
      -0.022 -0.068  0.511  0.632 -0.577
       0.070  0.015  0.292 -0.759 -0.577
      -0.740 -0.667 -0.014 -0.087 -0.000
       0.048 -0.053  0.803 -0.127  0.577
     occupation matrix ns (before diag.):
       0.990 -0.000 -0.000  0.000 -0.001
      -0.000  0.997  0.000 -0.000 -0.000
      -0.000  0.000  0.997  0.000 -0.000
       0.000 -0.000  0.000  0.990 -0.000
      -0.001 -0.000 -0.000 -0.000  0.997
     SPIN  2
     eigenvalues:
       0.051  0.051  0.052  0.606  0.606
     eigenvectors (columns):
       0.063 -0.007  0.000 -0.331  0.942
      -0.483 -0.656 -0.577  0.034  0.039
      -0.327  0.746 -0.577 -0.051  0.010
       0.007  0.063  0.000  0.942  0.331
      -0.810  0.090  0.577 -0.017  0.049
     occupation matrix ns (before diag.):
       0.604  0.014  0.014  0.000  0.029
       0.014  0.053 -0.001  0.025  0.001
       0.014 -0.001  0.053 -0.025  0.001
       0.000  0.025 -0.025  0.604 -0.000
       0.029  0.001  0.001 -0.000  0.053
     ------------------------ ATOM    2 ------------------------
     Tr[ns(  2)] (up, down, total) =   1.28304  4.97320  6.25624
     Atomic magnetic moment for atom   2 =  -3.69016
     SPIN  1
     eigenvalues:
       0.055  0.055  0.057  0.558  0.558
     eigenvectors (columns):
      -0.059  0.004 -0.000 -0.576 -0.815
       0.460  0.673  0.577  0.020 -0.044
       0.353 -0.735  0.577 -0.048  0.004
      -0.004 -0.059 -0.000  0.815 -0.576
       0.813 -0.061 -0.577 -0.028 -0.039
     occupation matrix ns (before diag.):
       0.557  0.012  0.012  0.000  0.024
       0.012  0.057 -0.000  0.021  0.000
       0.012 -0.000  0.057 -0.021  0.000
       0.000  0.021 -0.021  0.557 -0.000
       0.024  0.000  0.000 -0.000  0.057
     SPIN  2
     eigenvalues:
       0.990  0.990  0.998  0.998  0.998
     eigenvectors (columns):
       0.509 -0.857 -0.085  0.009  0.000
      -0.034 -0.061  0.482  0.655 -0.577
       0.070  0.001  0.327 -0.745 -0.577
      -0.857 -0.509 -0.009 -0.085 -0.000
       0.036 -0.060  0.809 -0.090  0.577
     occupation matrix ns (before diag.):
       0.990 -0.000 -0.000  0.000 -0.001
      -0.000  0.998  0.000 -0.000 -0.000
      -0.000  0.000  0.998  0.000 -0.000
       0.000 -0.000  0.000  0.990 -0.000
      -0.001 -0.000 -0.000 -0.000  0.998

     Number of occupied Hubbard levels =   12.5965

     negative rho (up, down):  3.521E-04 3.240E-04

     HUBBARD ENERGY =    0.2287  (Ry)

     total cpu time spent up to now is       83.2 secs

     total energy              =    -741.40669839 Ry
     estimated scf accuracy    <       0.05865530 Ry

     total magnetization       =    -0.11 Bohr mag/cell
     absolute magnetization    =     7.51 Bohr mag/cell

     iteration # 12     ecut=    70.00 Ry     beta= 0.10
     Davidson diagonalization with overlap

---- Real-time Memory Report at c_bands before calling an iterative solver
           212 MiB given to the printing process from OS
           128 MiB allocation reported by mallinfo(arena+hblkhd)
          7708 MiB available memory on the node where the printing process lives
------------------
     ethr =  1.33E-04,  avg # of iterations =  1.2

     =================== HUBBARD OCCUPATIONS ===================
     ------------------------ ATOM    1 ------------------------
     Tr[ns(  1)] (up, down, total) =   4.97239  1.29737  6.26977
     Atomic magnetic moment for atom   1 =   3.67502
     SPIN  1
     eigenvalues:
       0.990  0.990  0.997  0.997  0.998
     eigenvectors (columns):
       0.357  0.930  0.084  0.015 -0.000
      -0.044  0.054 -0.522  0.624  0.577
       0.069  0.011 -0.279 -0.764  0.577
      -0.930  0.357  0.015 -0.084  0.000
       0.025  0.065 -0.801 -0.140 -0.577
     occupation matrix ns (before diag.):
       0.990 -0.000 -0.000  0.000 -0.001
      -0.000  0.997  0.000 -0.000 -0.000
      -0.000  0.000  0.997  0.000 -0.000
       0.000 -0.000  0.000  0.990 -0.000
      -0.001 -0.000 -0.000 -0.000  0.997
     SPIN  2
     eigenvalues:
       0.041  0.041  0.041  0.587  0.587
     eigenvectors (columns):
      -0.000 -0.074 -0.012  0.468  0.880
      -0.577  0.513 -0.632 -0.033  0.052
      -0.577  0.291  0.761  0.062  0.002
      -0.000 -0.012  0.074 -0.880  0.468
       0.577  0.804  0.129  0.029  0.054
     occupation matrix ns (before diag.):
       0.584  0.017  0.017  0.000  0.033
       0.017  0.043 -0.001  0.029  0.001
       0.017 -0.001  0.043 -0.029  0.001
       0.000  0.029 -0.029  0.584 -0.000
       0.033  0.001  0.001 -0.000  0.043
     ------------------------ ATOM    2 ------------------------
     Tr[ns(  2)] (up, down, total) =   1.31274  4.97359  6.28632
     Atomic magnetic moment for atom   2 =  -3.66085
     SPIN  1
     eigenvalues:
       0.045  0.045  0.045  0.589  0.589
     eigenvectors (columns):
      -0.074  0.005  0.000 -0.520  0.851
       0.454  0.676 -0.577  0.029  0.053
       0.358 -0.731 -0.577 -0.060 -0.002
      -0.005 -0.074  0.000  0.851  0.520
       0.812 -0.055  0.577 -0.031  0.051
     occupation matrix ns (before diag.):
       0.586  0.016  0.016  0.000  0.033
       0.016  0.047 -0.001  0.028  0.001
       0.016 -0.001  0.047 -0.028  0.001
       0.000  0.028 -0.028  0.586 -0.000
       0.033  0.001  0.001 -0.000  0.047
     SPIN  2
     eigenvalues:
       0.990  0.990  0.998  0.998  0.998
     eigenvectors (columns):
       0.318  0.945 -0.076  0.012  0.000
      -0.042  0.047  0.516  0.630 -0.577
       0.062  0.012  0.288 -0.761 -0.577
      -0.945  0.318 -0.012 -0.076 -0.000
       0.020  0.060  0.803 -0.131  0.577
     occupation matrix ns (before diag.):
       0.990 -0.000 -0.000  0.000 -0.000
      -0.000  0.998  0.000 -0.000 -0.000
      -0.000  0.000  0.998  0.000 -0.000
       0.000 -0.000  0.000  0.990 -0.000
      -0.000 -0.000 -0.000 -0.000  0.998

     Number of occupied Hubbard levels =   12.5561

     negative rho (up, down):  2.733E-04 2.660E-04

     HUBBARD ENERGY =    0.2307  (Ry)

     total cpu time spent up to now is       89.9 secs

     total energy              =    -741.40663446 Ry
     estimated scf accuracy    <       0.03624359 Ry

     total magnetization       =     0.01 Bohr mag/cell
     absolute magnetization    =     7.54 Bohr mag/cell

     iteration # 13     ecut=    70.00 Ry     beta= 0.10
     Davidson diagonalization with overlap

---- Real-time Memory Report at c_bands before calling an iterative solver
           212 MiB given to the printing process from OS
           128 MiB allocation reported by mallinfo(arena+hblkhd)
          7708 MiB available memory on the node where the printing process lives
------------------
     ethr =  8.24E-05,  avg # of iterations =  6.0

     =================== HUBBARD OCCUPATIONS ===================
     ------------------------ ATOM    1 ------------------------
     Tr[ns(  1)] (up, down, total) =   4.97040  1.29201  6.26241
     Atomic magnetic moment for atom   1 =   3.67839
     SPIN  1
     eigenvalues:
       0.990  0.990  0.997  0.997  0.997
     eigenvectors (columns):
       0.346  0.935  0.076  0.008 -0.000
      -0.040  0.048 -0.476  0.661  0.577
       0.061  0.010 -0.334 -0.742  0.577
      -0.935  0.346  0.008 -0.076 -0.000
       0.022  0.058 -0.810 -0.082 -0.577
     occupation matrix ns (before diag.):
       0.990 -0.000 -0.000  0.000 -0.000
      -0.000  0.997  0.000 -0.000 -0.000
      -0.000  0.000  0.997  0.000 -0.000
       0.000 -0.000  0.000  0.990 -0.000
      -0.000 -0.000 -0.000 -0.000  0.997
     SPIN  2
     eigenvalues:
       0.033  0.033  0.033  0.596  0.596
     eigenvectors (columns):
      -0.000  0.067  0.026  0.351  0.934
      -0.577 -0.634  0.511 -0.037  0.045
      -0.577 -0.125 -0.805  0.058  0.010
      -0.000  0.026 -0.067 -0.934  0.351
       0.577 -0.759 -0.294  0.021  0.055
     occupation matrix ns (before diag.):
       0.593  0.016  0.016  0.000  0.033
       0.016  0.035 -0.001  0.028  0.001
       0.016 -0.001  0.035 -0.028  0.001
       0.000  0.028 -0.028  0.593 -0.000
       0.033  0.001  0.001 -0.000  0.035
     ------------------------ ATOM    2 ------------------------
     Tr[ns(  2)] (up, down, total) =   1.23543  4.97154  6.20697
     Atomic magnetic moment for atom   2 =  -3.73611
     SPIN  1
     eigenvalues:
       0.034  0.034  0.034  0.567  0.567
     eigenvectors (columns):
      -0.000  0.067  0.011  0.701 -0.709
      -0.577 -0.511  0.634 -0.015 -0.054
      -0.577 -0.294 -0.760  0.054  0.014
      -0.000  0.011 -0.067 -0.709 -0.701
       0.577 -0.805 -0.125  0.039 -0.040
     occupation matrix ns (before diag.):
       0.564  0.015  0.015  0.000  0.030
       0.015  0.036 -0.001  0.026  0.001
       0.015 -0.001  0.036 -0.026  0.001
       0.000  0.026 -0.026  0.564 -0.000
       0.030  0.001  0.001 -0.000  0.036
     SPIN  2
     eigenvalues:
       0.990  0.990  0.997  0.997  0.997
     eigenvectors (columns):
       0.524 -0.848 -0.072  0.014  0.000
      -0.028 -0.052  0.533  0.615 -0.577
       0.059  0.002  0.266 -0.770 -0.577
      -0.848 -0.524 -0.014 -0.072  0.000
       0.031 -0.051  0.800 -0.154  0.577
     occupation matrix ns (before diag.):
       0.990 -0.000 -0.000  0.000 -0.000
      -0.000  0.997  0.000 -0.000 -0.000
      -0.000  0.000  0.997  0.000 -0.000
       0.000 -0.000  0.000  0.990 -0.000
      -0.000 -0.000 -0.000 -0.000  0.997

     Number of occupied Hubbard levels =   12.4694

     negative rho (up, down):  2.508E-04 2.458E-04

     HUBBARD ENERGY =    0.2137  (Ry)

     total cpu time spent up to now is       98.8 secs

     total energy              =    -741.42843833 Ry
     estimated scf accuracy    <       0.02243494 Ry

     total magnetization       =    -0.07 Bohr mag/cell
     absolute magnetization    =     7.58 Bohr mag/cell

     iteration # 14     ecut=    70.00 Ry     beta= 0.10
     Davidson diagonalization with overlap

---- Real-time Memory Report at c_bands before calling an iterative solver
           212 MiB given to the printing process from OS
           128 MiB allocation reported by mallinfo(arena+hblkhd)
          7708 MiB available memory on the node where the printing process lives
------------------
     ethr =  5.10E-05,  avg # of iterations =  3.0

     =================== HUBBARD OCCUPATIONS ===================
     ------------------------ ATOM    1 ------------------------
     Tr[ns(  1)] (up, down, total) =   4.96887  1.29059  6.25946
     Atomic magnetic moment for atom   1 =   3.67828
     SPIN  1
     eigenvalues:
       0.989  0.989  0.997  0.997  0.997
     eigenvectors (columns):
       0.601 -0.797 -0.067  0.011  0.000
      -0.021 -0.051  0.518  0.629 -0.577
       0.055  0.007  0.286 -0.763 -0.577
      -0.797 -0.601 -0.011 -0.067  0.000
       0.033 -0.044  0.804 -0.134  0.577
     occupation matrix ns (before diag.):
       0.989 -0.000 -0.000  0.000 -0.000
      -0.000  0.997  0.000 -0.000 -0.000
      -0.000  0.000  0.997  0.000 -0.000
       0.000 -0.000  0.000  0.989 -0.000
      -0.000 -0.000 -0.000 -0.000  0.997
     SPIN  2
     eigenvalues:
       0.030  0.030  0.030  0.600  0.600
     eigenvectors (columns):
      -0.000 -0.038 -0.057  0.464  0.883
      -0.577  0.813 -0.052 -0.030  0.048
      -0.577 -0.362  0.730  0.056  0.002
      -0.000 -0.057  0.038 -0.883  0.464
       0.577  0.451  0.678  0.026  0.050
     occupation matrix ns (before diag.):
       0.598  0.016  0.016  0.000  0.032
       0.016  0.032 -0.001  0.028  0.001
       0.016 -0.001  0.032 -0.028  0.001
       0.000  0.028 -0.028  0.598 -0.000
       0.032  0.001  0.001 -0.000  0.032
     ------------------------ ATOM    2 ------------------------
     Tr[ns(  2)] (up, down, total) =   1.22132  4.96998  6.19130
     Atomic magnetic moment for atom   2 =  -3.74866
     SPIN  1
     eigenvalues:
       0.030  0.030  0.030  0.565  0.565
     eigenvectors (columns):
      -0.000  0.062  0.014  0.729  0.682
      -0.577 -0.555  0.596 -0.012  0.050
      -0.577 -0.239 -0.779  0.049 -0.015
      -0.000  0.014 -0.062 -0.682  0.729
       0.577 -0.794 -0.183  0.038  0.035
     occupation matrix ns (before diag.):
       0.563  0.014  0.014  0.000  0.028
       0.014  0.032 -0.001  0.024  0.001
       0.014 -0.001  0.032 -0.024  0.001
       0.000  0.024 -0.024  0.563 -0.000
       0.028  0.001  0.001 -0.000  0.032
     SPIN  2
     eigenvalues:
       0.989  0.989  0.997  0.997  0.997
     eigenvectors (columns):
      -0.518 -0.853 -0.063  0.006  0.000
       0.025 -0.046  0.470  0.666 -0.577
      -0.052  0.001  0.342 -0.740 -0.577
       0.853 -0.518 -0.006 -0.063  0.000
      -0.027 -0.044  0.811 -0.074  0.577
     occupation matrix ns (before diag.):
       0.989 -0.000 -0.000  0.000 -0.000
      -0.000  0.997  0.000 -0.000 -0.000
      -0.000  0.000  0.997  0.000 -0.000
       0.000 -0.000  0.000  0.989 -0.000
      -0.000 -0.000 -0.000 -0.000  0.997

     Number of occupied Hubbard levels =   12.4508

     negative rho (up, down):  2.542E-04 2.499E-04

     HUBBARD ENERGY =    0.1679  (Ry)

     total cpu time spent up to now is      106.5 secs

     total energy              =    -741.43056334 Ry
     estimated scf accuracy    <       0.04281035 Ry

     total magnetization       =    -0.09 Bohr mag/cell
     absolute magnetization    =     7.58 Bohr mag/cell

     iteration # 15     ecut=    70.00 Ry     beta= 0.10
     Davidson diagonalization with overlap

---- Real-time Memory Report at c_bands before calling an iterative solver
           212 MiB given to the printing process from OS
           128 MiB allocation reported by mallinfo(arena+hblkhd)
          7709 MiB available memory on the node where the printing process lives
------------------
     ethr =  5.10E-05,  avg # of iterations =  1.5

     =================== HUBBARD OCCUPATIONS ===================
     ------------------------ ATOM    1 ------------------------
     Tr[ns(  1)] (up, down, total) =   4.96666  1.25678  6.22345
     Atomic magnetic moment for atom   1 =   3.70988
     SPIN  1
     eigenvalues:
       0.988  0.988  0.997  0.997  0.997
     eigenvectors (columns):
       0.343  0.938 -0.055  0.012  0.000
      -0.030  0.035  0.545  0.607 -0.577
       0.046  0.008  0.253 -0.775 -0.577
      -0.938  0.343 -0.012 -0.055  0.000
       0.016  0.043  0.798 -0.168  0.577
     occupation matrix ns (before diag.):
       0.988 -0.000 -0.000  0.000 -0.000
      -0.000  0.997  0.000 -0.000 -0.000
      -0.000  0.000  0.997  0.000 -0.000
       0.000 -0.000  0.000  0.988 -0.000
      -0.000 -0.000 -0.000 -0.000  0.997
     SPIN  2
     eigenvalues:
       0.027  0.028  0.028  0.587  0.587
     eigenvectors (columns):
      -0.000 -0.068 -0.006  0.549  0.833
      -0.577  0.470 -0.665 -0.025  0.050
      -0.577  0.341  0.740  0.055 -0.003
      -0.000 -0.006  0.068 -0.833  0.549
       0.577  0.811  0.074  0.030  0.046
     occupation matrix ns (before diag.):
       0.585  0.015  0.015  0.000  0.031
       0.015  0.029 -0.001  0.027  0.001
       0.015 -0.001  0.029 -0.027  0.001
       0.000  0.027 -0.027  0.585 -0.000
       0.031  0.001  0.001 -0.000  0.029
     ------------------------ ATOM    2 ------------------------
     Tr[ns(  2)] (up, down, total) =   1.28219  4.96693  6.24912
     Atomic magnetic moment for atom   2 =  -3.68474
     SPIN  1
     eigenvalues:
       0.027  0.028  0.028  0.600  0.600
     eigenvectors (columns):
      -0.000  0.032  0.051  0.468  0.882
      -0.577 -0.814  0.035 -0.026  0.042
      -0.577  0.377 -0.722  0.049  0.002
      -0.000  0.051 -0.032 -0.882  0.468
       0.577 -0.437 -0.688  0.023  0.043
     occupation matrix ns (before diag.):
       0.597  0.014  0.014  0.000  0.028
       0.014  0.029 -0.001  0.024  0.001
       0.014 -0.001  0.029 -0.024  0.001
       0.000  0.024 -0.024  0.597 -0.000
       0.028  0.001  0.001 -0.000  0.029
     SPIN  2
     eigenvalues:
       0.988  0.988  0.997  0.997  0.997
     eigenvectors (columns):
      -0.594 -0.803 -0.052  0.011  0.000
       0.017 -0.040  0.545  0.606 -0.577
      -0.043  0.005  0.252 -0.775 -0.577
       0.803 -0.594 -0.011 -0.052  0.000
      -0.026 -0.035  0.798 -0.169  0.577
     occupation matrix ns (before diag.):
       0.988 -0.000 -0.000  0.000 -0.000
      -0.000  0.997  0.000 -0.000 -0.000
      -0.000  0.000  0.997  0.000 -0.000
       0.000 -0.000  0.000  0.988 -0.000
      -0.000 -0.000 -0.000 -0.000  0.997

     Number of occupied Hubbard levels =   12.4726

     negative rho (up, down):  2.593E-04 2.591E-04

     HUBBARD ENERGY =    0.1968  (Ry)

     total cpu time spent up to now is      112.9 secs

     total energy              =    -741.43270414 Ry
     estimated scf accuracy    <       0.04362938 Ry

     total magnetization       =     0.03 Bohr mag/cell
     absolute magnetization    =     7.55 Bohr mag/cell

     iteration # 16     ecut=    70.00 Ry     beta= 0.10
     Davidson diagonalization with overlap

---- Real-time Memory Report at c_bands before calling an iterative solver
           212 MiB given to the printing process from OS
           128 MiB allocation reported by mallinfo(arena+hblkhd)
          7710 MiB available memory on the node where the printing process lives
------------------
     ethr =  5.10E-05,  avg # of iterations =  1.9

     =================== HUBBARD OCCUPATIONS ===================
     ------------------------ ATOM    1 ------------------------
     Tr[ns(  1)] (up, down, total) =   4.96776  1.23643  6.20419
     Atomic magnetic moment for atom   1 =   3.73134
     SPIN  1
     eigenvalues:
       0.989  0.989  0.997  0.997  0.997
     eigenvectors (columns):
       0.553 -0.830 -0.065  0.009  0.000
      -0.024 -0.048  0.503  0.641 -0.577
       0.053  0.003  0.303 -0.756 -0.577
      -0.830 -0.553 -0.009 -0.065  0.000
       0.030 -0.045  0.807 -0.115  0.577
     occupation matrix ns (before diag.):
       0.989 -0.000 -0.000  0.000 -0.000
      -0.000  0.997  0.000 -0.000 -0.000
      -0.000  0.000  0.997  0.000 -0.000
       0.000 -0.000  0.000  0.989 -0.000
      -0.000 -0.000 -0.000 -0.000  0.997
     SPIN  2
     eigenvalues:
       0.028  0.028  0.028  0.576  0.576
     eigenvectors (columns):
      -0.000 -0.006  0.065 -0.578  0.813
      -0.577  0.741 -0.339  0.022  0.048
      -0.577 -0.664 -0.472 -0.053 -0.005
      -0.000 -0.065 -0.006  0.813  0.578
       0.577  0.077 -0.811 -0.031  0.043
     occupation matrix ns (before diag.):
       0.573  0.014  0.014  0.000  0.029
       0.014  0.030 -0.001  0.025  0.001
       0.014 -0.001  0.030 -0.025  0.001
       0.000  0.025 -0.025  0.573 -0.000
       0.029  0.001  0.001 -0.000  0.030
     ------------------------ ATOM    2 ------------------------
     Tr[ns(  2)] (up, down, total) =   1.25691  4.96736  6.22427
     Atomic magnetic moment for atom   2 =  -3.71045
     SPIN  1
     eigenvalues:
       0.028  0.028  0.028  0.586  0.586
     eigenvectors (columns):
       0.000 -0.060 -0.003  0.450  0.891
      -0.577  0.444 -0.683 -0.027  0.041
      -0.577  0.370  0.726  0.049  0.003
      -0.000 -0.003  0.060 -0.891  0.450
       0.577  0.814  0.043  0.022  0.044
     occupation matrix ns (before diag.):
       0.584  0.014  0.014  0.000  0.027
       0.014  0.029 -0.001  0.024  0.001
       0.014 -0.001  0.029 -0.024  0.001
       0.000  0.024 -0.024  0.584 -0.000
       0.027  0.001  0.001 -0.000  0.029
     SPIN  2
     eigenvalues:
       0.988  0.988  0.997  0.997  0.997
     eigenvectors (columns):
      -0.416 -0.907 -0.063  0.011  0.000
       0.030 -0.043  0.524  0.624 -0.577
      -0.052 -0.005  0.278 -0.766 -0.577
       0.907 -0.416 -0.011 -0.063  0.000
      -0.022 -0.047  0.802 -0.142  0.577
     occupation matrix ns (before diag.):
       0.988 -0.000 -0.000  0.000 -0.000
      -0.000  0.997  0.000 -0.000 -0.000
      -0.000  0.000  0.997  0.000 -0.000
       0.000 -0.000  0.000  0.988 -0.000
      -0.000 -0.000 -0.000 -0.000  0.997

     Number of occupied Hubbard levels =   12.4285

     negative rho (up, down):  2.612E-04 2.576E-04

     HUBBARD ENERGY =    0.2044  (Ry)

     total cpu time spent up to now is      120.6 secs

     total energy              =    -741.43090574 Ry
     estimated scf accuracy    <       0.05817532 Ry

     total magnetization       =     0.03 Bohr mag/cell
     absolute magnetization    =     7.59 Bohr mag/cell

     iteration # 17     ecut=    70.00 Ry     beta= 0.10
     Davidson diagonalization with overlap

---- Real-time Memory Report at c_bands before calling an iterative solver
           212 MiB given to the printing process from OS
           128 MiB allocation reported by mallinfo(arena+hblkhd)
          7711 MiB available memory on the node where the printing process lives
------------------
     ethr =  5.10E-05,  avg # of iterations =  1.0

     =================== HUBBARD OCCUPATIONS ===================
     ------------------------ ATOM    1 ------------------------
     Tr[ns(  1)] (up, down, total) =   4.96773  1.25855  6.22628
     Atomic magnetic moment for atom   1 =   3.70918
     SPIN  1
     eigenvalues:
       0.988  0.988  0.997  0.997  0.997
     eigenvectors (columns):
       0.449 -0.891 -0.067  0.012  0.000
      -0.030 -0.046  0.527  0.621 -0.577
       0.055 -0.003  0.274 -0.767 -0.577
      -0.891 -0.449 -0.012 -0.067  0.000
       0.025 -0.049  0.801 -0.146  0.577
     occupation matrix ns (before diag.):
       0.989 -0.000 -0.000  0.000 -0.000
      -0.000  0.997  0.000 -0.000 -0.000
      -0.000  0.000  0.997  0.000 -0.000
       0.000 -0.000  0.000  0.989 -0.000
      -0.000 -0.000 -0.000 -0.000  0.997
     SPIN  2
     eigenvalues:
       0.029  0.030  0.030  0.585  0.585
     eigenvectors (columns):
      -0.000  0.057  0.034  0.747 -0.662
      -0.577 -0.712  0.396 -0.011 -0.053
      -0.577  0.013 -0.815  0.051  0.017
      -0.000  0.034 -0.057 -0.662 -0.747
       0.577 -0.699 -0.419  0.041 -0.036
     occupation matrix ns (before diag.):
       0.583  0.015  0.015  0.000  0.030
       0.015  0.031 -0.001  0.026  0.001
       0.015 -0.001  0.031 -0.026  0.001
       0.000  0.026 -0.026  0.583 -0.000
       0.030  0.001  0.001 -0.000  0.031
     ------------------------ ATOM    2 ------------------------
     Tr[ns(  2)] (up, down, total) =   1.25350  4.96804  6.22154
     Atomic magnetic moment for atom   2 =  -3.71454
     SPIN  1
     eigenvalues:
       0.029  0.030  0.030  0.582  0.582
     eigenvectors (columns):
      -0.000 -0.041  0.046 -0.372  0.926
      -0.577  0.797  0.168  0.031  0.039
      -0.577 -0.253 -0.775 -0.049  0.007
      -0.000 -0.046 -0.041  0.926  0.372
       0.577  0.544 -0.606 -0.019  0.046
     occupation matrix ns (before diag.):
       0.580  0.014  0.014  0.000  0.028
       0.014  0.031 -0.001  0.024  0.001
       0.014 -0.001  0.031 -0.024  0.001
       0.000  0.024 -0.024  0.580 -0.000
       0.028  0.001  0.001 -0.000  0.031
     SPIN  2
     eigenvalues:
       0.989  0.989  0.997  0.997  0.997
     eigenvectors (columns):
       0.547 -0.835 -0.064  0.011  0.000
      -0.024 -0.047  0.518  0.629 -0.577
       0.053  0.003  0.286 -0.763 -0.577
      -0.835 -0.547 -0.011 -0.064  0.000
       0.029 -0.044  0.804 -0.134  0.577
     occupation matrix ns (before diag.):
       0.989 -0.000 -0.000  0.000 -0.000
      -0.000  0.997  0.000 -0.000 -0.000
      -0.000  0.000  0.997  0.000 -0.000
       0.000 -0.000  0.000  0.989 -0.000
      -0.000 -0.000 -0.000 -0.000  0.997

     Number of occupied Hubbard levels =   12.4478

     negative rho (up, down):  2.700E-04 2.606E-04

     HUBBARD ENERGY =    0.1946  (Ry)

     total cpu time spent up to now is      127.1 secs

     total energy              =    -741.41781947 Ry
     estimated scf accuracy    <       0.04754033 Ry

     total magnetization       =    -0.01 Bohr mag/cell
     absolute magnetization    =     7.57 Bohr mag/cell

     iteration # 18     ecut=    70.00 Ry     beta= 0.10
     Davidson diagonalization with overlap

---- Real-time Memory Report at c_bands before calling an iterative solver
           212 MiB given to the printing process from OS
           128 MiB allocation reported by mallinfo(arena+hblkhd)
          7711 MiB available memory on the node where the printing process lives
------------------
     ethr =  5.10E-05,  avg # of iterations =  2.0

     =================== HUBBARD OCCUPATIONS ===================
     ------------------------ ATOM    1 ------------------------
     Tr[ns(  1)] (up, down, total) =   4.96485  1.27186  6.23671
     Atomic magnetic moment for atom   1 =   3.69299
     SPIN  1
     eigenvalues:
       0.987  0.987  0.997  0.997  0.997
     eigenvectors (columns):
       0.607 -0.792 -0.061  0.011  0.000
      -0.020 -0.047  0.530  0.619 -0.577
       0.051  0.007  0.271 -0.768 -0.577
      -0.792 -0.607 -0.011 -0.061 -0.000
       0.031 -0.041  0.801 -0.149  0.577
     occupation matrix ns (before diag.):
       0.987 -0.000 -0.000  0.000 -0.001
      -0.000  0.997  0.000 -0.000 -0.000
      -0.000  0.000  0.997  0.000 -0.000
       0.000 -0.000  0.000  0.987 -0.000
      -0.001 -0.000 -0.000 -0.000  0.997
     SPIN  2
     eigenvalues:
       0.031  0.032  0.032  0.588  0.588
     eigenvectors (columns):
      -0.000 -0.060 -0.006  0.608  0.792
      -0.577  0.476 -0.662 -0.019  0.046
      -0.577  0.335  0.743  0.049 -0.006
      -0.000 -0.006  0.060 -0.792  0.608
       0.577  0.811  0.081  0.030  0.039
     occupation matrix ns (before diag.):
       0.586  0.014  0.014  0.000  0.027
       0.014  0.033 -0.001  0.024  0.001
       0.014 -0.001  0.033 -0.024  0.001
       0.000  0.024 -0.024  0.586 -0.000
       0.027  0.001  0.001 -0.000  0.033
     ------------------------ ATOM    2 ------------------------
     Tr[ns(  2)] (up, down, total) =   1.33116  4.96577  6.29693
     Atomic magnetic moment for atom   2 =  -3.63462
     SPIN  1
     eigenvalues:
       0.032  0.032  0.032  0.617  0.617
     eigenvectors (columns):
      -0.000 -0.053 -0.006  0.513  0.857
      -0.577  0.488 -0.654 -0.021  0.038
      -0.577  0.322  0.749  0.044 -0.001
      -0.000 -0.006  0.053 -0.857  0.513
       0.577  0.810  0.095  0.023  0.038
     occupation matrix ns (before diag.):
       0.615  0.013  0.013  0.000  0.026
       0.013  0.033 -0.001  0.022  0.001
       0.013 -0.001  0.033 -0.022  0.001
       0.000  0.022 -0.022  0.615 -0.000
       0.026  0.001  0.001 -0.000  0.033
     SPIN  2
     eigenvalues:
       0.987  0.987  0.997  0.997  0.997
     eigenvectors (columns):
       0.652 -0.756 -0.057  0.008  0.000
      -0.016 -0.044  0.501  0.643 -0.577
       0.046  0.009  0.306 -0.756 -0.577
      -0.756 -0.652 -0.008 -0.057  0.000
       0.031 -0.036  0.807 -0.113  0.577
     occupation matrix ns (before diag.):
       0.987 -0.000 -0.000  0.000 -0.000
      -0.000  0.997  0.000 -0.000 -0.000
      -0.000  0.000  0.997  0.000 -0.000
       0.000 -0.000  0.000  0.987 -0.000
      -0.000 -0.000 -0.000 -0.000  0.997

     Number of occupied Hubbard levels =   12.5336

     negative rho (up, down):  2.400E-04 2.356E-04

     HUBBARD ENERGY =    0.2117  (Ry)

     total cpu time spent up to now is      133.6 secs

     total energy              =    -741.41512300 Ry
     estimated scf accuracy    <       0.01461123 Ry

     total magnetization       =     0.07 Bohr mag/cell
     absolute magnetization    =     7.48 Bohr mag/cell

     iteration # 19     ecut=    70.00 Ry     beta= 0.10
     Davidson diagonalization with overlap

---- Real-time Memory Report at c_bands before calling an iterative solver
           212 MiB given to the printing process from OS
           128 MiB allocation reported by mallinfo(arena+hblkhd)
          7712 MiB available memory on the node where the printing process lives
------------------
     ethr =  3.32E-05,  avg # of iterations =  4.6

     =================== HUBBARD OCCUPATIONS ===================
     ------------------------ ATOM    1 ------------------------
     Tr[ns(  1)] (up, down, total) =   4.96168  1.32546  6.28714
     Atomic magnetic moment for atom   1 =   3.63621
     SPIN  1
     eigenvalues:
       0.986  0.986  0.997  0.997  0.997
     eigenvectors (columns):
       0.532 -0.845 -0.055  0.012  0.000
      -0.021 -0.040  0.545  0.606 -0.577
       0.046  0.002  0.253 -0.775 -0.577
      -0.845 -0.532 -0.012 -0.055 -0.000
       0.024 -0.039  0.798 -0.169  0.577
     occupation matrix ns (before diag.):
       0.986 -0.000 -0.000  0.000 -0.001
      -0.000  0.997  0.000 -0.000 -0.000
      -0.000  0.000  0.997  0.000 -0.000
       0.000 -0.000  0.000  0.986 -0.000
      -0.001 -0.000 -0.000 -0.000  0.997
     SPIN  2
     eigenvalues:
       0.035  0.035  0.035  0.610  0.610
     eigenvectors (columns):
      -0.000 -0.042 -0.011 -0.711 -0.702
      -0.577  0.569 -0.584  0.009 -0.034
      -0.577  0.222  0.785 -0.034  0.009
      -0.000 -0.011  0.042  0.702 -0.711
       0.577  0.791  0.201 -0.025 -0.025
     occupation matrix ns (before diag.):
       0.609  0.010  0.010  0.000  0.020
       0.010  0.036 -0.000  0.017  0.000
       0.010 -0.000  0.036 -0.017  0.000
       0.000  0.017 -0.017  0.609 -0.000
       0.020  0.000  0.000 -0.000  0.036
     ------------------------ ATOM    2 ------------------------
     Tr[ns(  2)] (up, down, total) =   1.34726  4.96226  6.30952
     Atomic magnetic moment for atom   2 =  -3.61500
     SPIN  1
     eigenvalues:
       0.035  0.035  0.035  0.621  0.621
     eigenvectors (columns):
      -0.000  0.030  0.013  0.528  0.849
      -0.577 -0.647  0.497 -0.013  0.024
      -0.577 -0.107 -0.809  0.027 -0.001
      -0.000  0.013 -0.030 -0.849  0.528
       0.577 -0.754 -0.312  0.014  0.023
     occupation matrix ns (before diag.):
       0.620  0.008  0.008  0.000  0.016
       0.008  0.036 -0.000  0.014  0.000
       0.008 -0.000  0.036 -0.014  0.000
       0.000  0.014 -0.014  0.620 -0.000
       0.016  0.000  0.000 -0.000  0.036
     SPIN  2
     eigenvalues:
       0.986  0.986  0.997  0.997  0.997
     eigenvectors (columns):
       0.578 -0.814 -0.052  0.008  0.000
      -0.018 -0.039  0.513  0.634 -0.577
       0.043  0.004  0.293 -0.761 -0.577
      -0.814 -0.578 -0.008 -0.052  0.000
       0.025 -0.035  0.805 -0.127  0.577
     occupation matrix ns (before diag.):
       0.986 -0.000 -0.000  0.000 -0.000
      -0.000  0.997  0.000 -0.000 -0.000
      -0.000  0.000  0.997  0.000 -0.000
       0.000 -0.000  0.000  0.986 -0.000
      -0.000 -0.000 -0.000 -0.000  0.997

     Number of occupied Hubbard levels =   12.5967

     negative rho (up, down):  2.382E-04 2.329E-04

     HUBBARD ENERGY =    0.2079  (Ry)

     total cpu time spent up to now is      142.2 secs

     total energy              =    -741.42067760 Ry
     estimated scf accuracy    <       0.00351357 Ry

     total magnetization       =     0.03 Bohr mag/cell
     absolute magnetization    =     7.42 Bohr mag/cell

     iteration # 20     ecut=    70.00 Ry     beta= 0.10
     Davidson diagonalization with overlap

---- Real-time Memory Report at c_bands before calling an iterative solver
           212 MiB given to the printing process from OS
           128 MiB allocation reported by mallinfo(arena+hblkhd)
          7712 MiB available memory on the node where the printing process lives
------------------
     ethr =  7.99E-06,  avg # of iterations =  1.8

     =================== HUBBARD OCCUPATIONS ===================
     ------------------------ ATOM    1 ------------------------
     Tr[ns(  1)] (up, down, total) =   4.96229  1.31937  6.28165
     Atomic magnetic moment for atom   1 =   3.64292
     SPIN  1
     eigenvalues:
       0.986  0.986  0.997  0.997  0.997
     eigenvectors (columns):
       0.631 -0.774 -0.054  0.010  0.000
      -0.016 -0.042  0.533  0.617 -0.577
       0.045  0.007  0.268 -0.770 -0.577
      -0.774 -0.631 -0.010 -0.054  0.000
       0.029 -0.035  0.801 -0.153  0.577
     occupation matrix ns (before diag.):
       0.986 -0.000 -0.000  0.000 -0.000
      -0.000  0.997  0.000 -0.000 -0.000
      -0.000  0.000  0.997  0.000 -0.000
       0.000 -0.000  0.000  0.986 -0.000
      -0.000 -0.000 -0.000 -0.000  0.997
     SPIN  2
     eigenvalues:
       0.034  0.034  0.034  0.609  0.609
     eigenvectors (columns):
      -0.000 -0.045 -0.009  0.856 -0.514
      -0.577  0.539 -0.612 -0.001 -0.038
      -0.577  0.261  0.773  0.033  0.018
      -0.000 -0.009  0.045 -0.514 -0.856
       0.577  0.800  0.160  0.032 -0.019
     occupation matrix ns (before diag.):
       0.608  0.011  0.011  0.000  0.022
       0.011  0.035 -0.000  0.019  0.000
       0.011 -0.000  0.035 -0.019  0.000
       0.000  0.019 -0.019  0.608 -0.000
       0.022  0.000  0.000 -0.000  0.035
     ------------------------ ATOM    2 ------------------------
     Tr[ns(  2)] (up, down, total) =   1.33367  4.96306  6.29673
     Atomic magnetic moment for atom   2 =  -3.62940
     SPIN  1
     eigenvalues:
       0.034  0.034  0.034  0.616  0.616
     eigenvectors (columns):
      -0.000 -0.005 -0.036  0.671  0.741
      -0.577  0.756  0.308 -0.009  0.028
      -0.577 -0.645  0.500  0.029 -0.006
      -0.000 -0.036  0.005 -0.741  0.671
       0.577  0.111  0.808  0.020  0.022
     occupation matrix ns (before diag.):
       0.615  0.009  0.009  0.000  0.017
       0.009  0.035 -0.000  0.015  0.000
       0.009 -0.000  0.035 -0.015  0.000
       0.000  0.015 -0.015  0.615 -0.000
       0.017  0.000  0.000 -0.000  0.035
     SPIN  2
     eigenvalues:
       0.986  0.986  0.997  0.997  0.997
     eigenvectors (columns):
       0.453 -0.890 -0.051  0.011  0.000
      -0.023 -0.036  0.543  0.608 -0.577
       0.042 -0.002  0.255 -0.774 -0.577
      -0.890 -0.453 -0.011 -0.051  0.000
       0.019 -0.038  0.798 -0.166  0.577
     occupation matrix ns (before diag.):
       0.986 -0.000 -0.000  0.000 -0.000
      -0.000  0.997  0.000 -0.000 -0.000
      -0.000  0.000  0.997  0.000 -0.000
       0.000 -0.000  0.000  0.986 -0.000
      -0.000 -0.000 -0.000 -0.000  0.997

     Number of occupied Hubbard levels =   12.5784

     negative rho (up, down):  2.383E-04 2.327E-04

     HUBBARD ENERGY =    0.2077  (Ry)

     total cpu time spent up to now is      149.3 secs

     total energy              =    -741.42092022 Ry
     estimated scf accuracy    <       0.00105682 Ry

     total magnetization       =     0.02 Bohr mag/cell
     absolute magnetization    =     7.44 Bohr mag/cell

     iteration # 21     ecut=    70.00 Ry     beta= 0.10
     Davidson diagonalization with overlap

---- Real-time Memory Report at c_bands before calling an iterative solver
           212 MiB given to the printing process from OS
           128 MiB allocation reported by mallinfo(arena+hblkhd)
          7712 MiB available memory on the node where the printing process lives
------------------
     ethr =  2.40E-06,  avg # of iterations =  2.9

     =================== HUBBARD OCCUPATIONS ===================
     ------------------------ ATOM    1 ------------------------
     Tr[ns(  1)] (up, down, total) =   4.96253  1.31934  6.28186
     Atomic magnetic moment for atom   1 =   3.64319
     SPIN  1
     eigenvalues:
       0.986  0.986  0.997  0.997  0.997
     eigenvectors (columns):
       0.550 -0.834 -0.054  0.010  0.000
      -0.020 -0.040  0.532  0.618 -0.577
       0.045  0.003  0.269 -0.770 -0.577
      -0.834 -0.550 -0.010 -0.054  0.000
       0.025 -0.038  0.801 -0.152  0.577
     occupation matrix ns (before diag.):
       0.986 -0.000 -0.000  0.000 -0.000
      -0.000  0.997  0.000 -0.000 -0.000
      -0.000  0.000  0.997  0.000 -0.000
       0.000 -0.000  0.000  0.986 -0.000
      -0.000 -0.000 -0.000 -0.000  0.997
     SPIN  2
     eigenvalues:
       0.033  0.034  0.034  0.609  0.609
     eigenvectors (columns):
      -0.000 -0.007 -0.047 -0.748  0.663
      -0.577  0.760  0.296  0.008  0.038
      -0.577 -0.636  0.510 -0.036 -0.012
      -0.000 -0.047  0.007  0.663  0.748
       0.577  0.124  0.806 -0.029  0.025
     occupation matrix ns (before diag.):
       0.608  0.011  0.011  0.000  0.022
       0.011  0.035 -0.001  0.019  0.001
       0.011 -0.001  0.035 -0.019  0.001
       0.000  0.019 -0.019  0.608 -0.000
       0.022  0.001  0.001 -0.000  0.035
     ------------------------ ATOM    2 ------------------------
     Tr[ns(  2)] (up, down, total) =   1.32915  4.96340  6.29254
     Atomic magnetic moment for atom   2 =  -3.63425
     SPIN  1
     eigenvalues:
       0.034  0.034  0.034  0.614  0.614
     eigenvectors (columns):
      -0.000  0.034  0.013  0.515  0.856
      -0.577 -0.635  0.512 -0.014  0.026
      -0.577 -0.126 -0.806  0.030 -0.001
      -0.000  0.013 -0.034 -0.856  0.515
       0.577 -0.761 -0.294  0.015  0.026
     occupation matrix ns (before diag.):
       0.613  0.009  0.009  0.000  0.017
       0.009  0.035 -0.000  0.015  0.000
       0.009 -0.000  0.035 -0.015  0.000
       0.000  0.015 -0.015  0.613 -0.000
       0.017  0.000  0.000 -0.000  0.035
     SPIN  2
     eigenvalues:
       0.986  0.986  0.997  0.997  0.997
     eigenvectors (columns):
       0.593 -0.803 -0.051  0.012  0.000
      -0.017 -0.039  0.555  0.598 -0.577
       0.042  0.005  0.240 -0.779 -0.577
      -0.803 -0.593 -0.012 -0.051  0.000
       0.025 -0.034  0.795 -0.182  0.577
     occupation matrix ns (before diag.):
       0.986 -0.000 -0.000  0.000 -0.000
      -0.000  0.997  0.000 -0.000 -0.000
      -0.000  0.000  0.997  0.000 -0.000
       0.000 -0.000  0.000  0.986 -0.000
      -0.000 -0.000 -0.000 -0.000  0.997

     Number of occupied Hubbard levels =   12.5744

     negative rho (up, down):  2.196E-04 2.132E-04

     HUBBARD ENERGY =    0.2076  (Ry)

     total cpu time spent up to now is      156.8 secs

     total energy              =    -741.42090982 Ry
     estimated scf accuracy    <       0.00043323 Ry

     total magnetization       =     0.01 Bohr mag/cell
     absolute magnetization    =     7.44 Bohr mag/cell

     iteration # 22     ecut=    70.00 Ry     beta= 0.10
     Davidson diagonalization with overlap

---- Real-time Memory Report at c_bands before calling an iterative solver
           212 MiB given to the printing process from OS
           128 MiB allocation reported by mallinfo(arena+hblkhd)
          7712 MiB available memory on the node where the printing process lives
------------------
     ethr =  9.85E-07,  avg # of iterations =  5.0

     =================== HUBBARD OCCUPATIONS ===================
     ------------------------ ATOM    1 ------------------------
     Tr[ns(  1)] (up, down, total) =   4.96141  1.34033  6.30174
     Atomic magnetic moment for atom   1 =   3.62108
     SPIN  1
     eigenvalues:
       0.985  0.985  0.997  0.997  0.997
     eigenvectors (columns):
      -0.550 -0.834 -0.049  0.008  0.000
       0.018 -0.036  0.520  0.628 -0.577
      -0.040  0.002  0.284 -0.764 -0.577
       0.834 -0.550 -0.008 -0.049  0.000
      -0.022 -0.034  0.804 -0.136  0.577
     occupation matrix ns (before diag.):
       0.986 -0.000 -0.000  0.000 -0.000
      -0.000  0.997  0.000 -0.000 -0.000
      -0.000  0.000  0.997  0.000 -0.000
       0.000 -0.000  0.000  0.986 -0.000
      -0.000 -0.000 -0.000 -0.000  0.997
     SPIN  2
     eigenvalues:
       0.033  0.034  0.034  0.620  0.620
     eigenvectors (columns):
      -0.000 -0.037  0.003 -0.395  0.918
      -0.577  0.471  0.666  0.018  0.024
      -0.577  0.341 -0.741 -0.030  0.004
      -0.000 -0.003 -0.037  0.918  0.395
       0.577  0.812 -0.075 -0.012  0.028
     occupation matrix ns (before diag.):
       0.619  0.009  0.009  0.000  0.018
       0.009  0.034 -0.000  0.015  0.000
       0.009 -0.000  0.034 -0.015  0.000
       0.000  0.015 -0.015  0.619 -0.000
       0.018  0.000  0.000 -0.000  0.034
     ------------------------ ATOM    2 ------------------------
     Tr[ns(  2)] (up, down, total) =   1.31465  4.96264  6.27729
     Atomic magnetic moment for atom   2 =  -3.64798
     SPIN  1
     eigenvalues:
       0.034  0.034  0.034  0.606  0.606
     eigenvectors (columns):
      -0.000 -0.010 -0.020  0.567  0.824
      -0.577  0.814  0.055 -0.008  0.017
      -0.577 -0.455  0.678  0.019 -0.001
      -0.000 -0.020  0.010 -0.824  0.567
       0.577  0.360  0.733  0.011  0.015
     occupation matrix ns (before diag.):
       0.606  0.005  0.005  0.000  0.011
       0.005  0.034 -0.000  0.009  0.000
       0.005 -0.000  0.034 -0.009  0.000
       0.000  0.009 -0.009  0.606 -0.000
       0.011  0.000  0.000 -0.000  0.034
     SPIN  2
     eigenvalues:
       0.986  0.986  0.997  0.997  0.997
     eigenvectors (columns):
      -0.593  0.804 -0.045  0.009 -0.000
       0.015  0.034  0.536  0.615  0.577
      -0.037 -0.004  0.264 -0.772  0.577
       0.804  0.593 -0.009 -0.045 -0.000
      -0.022  0.030  0.800 -0.157 -0.577
     occupation matrix ns (before diag.):
       0.986 -0.000 -0.000  0.000 -0.000
      -0.000  0.997  0.000 -0.000 -0.000
      -0.000  0.000  0.997  0.000 -0.000
       0.000 -0.000  0.000  0.986 -0.000
      -0.000 -0.000 -0.000 -0.000  0.997

     Number of occupied Hubbard levels =   12.5790

     negative rho (up, down):  2.327E-04 2.260E-04

     HUBBARD ENERGY =    0.2062  (Ry)

     total cpu time spent up to now is      165.5 secs

     total energy              =    -741.42114283 Ry
     estimated scf accuracy    <       0.00023908 Ry

     total magnetization       =    -0.03 Bohr mag/cell
     absolute magnetization    =     7.42 Bohr mag/cell

     iteration # 23     ecut=    70.00 Ry     beta= 0.10
     Davidson diagonalization with overlap

---- Real-time Memory Report at c_bands before calling an iterative solver
           212 MiB given to the printing process from OS
           128 MiB allocation reported by mallinfo(arena+hblkhd)
          7714 MiB available memory on the node where the printing process lives
------------------
     ethr =  5.43E-07,  avg # of iterations =  1.5

     =================== HUBBARD OCCUPATIONS ===================
     ------------------------ ATOM    1 ------------------------
     Tr[ns(  1)] (up, down, total) =   4.96219  1.32411  6.28630
     Atomic magnetic moment for atom   1 =   3.63809
     SPIN  1
     eigenvalues:
       0.986  0.986  0.997  0.997  0.997
     eigenvectors (columns):
       0.623 -0.781 -0.050  0.009  0.000
      -0.015 -0.039  0.530  0.620 -0.577
       0.041  0.006  0.272 -0.769 -0.577
      -0.781 -0.623 -0.009 -0.050  0.000
       0.026 -0.033  0.802 -0.149  0.577
     occupation matrix ns (before diag.):
       0.986 -0.000 -0.000  0.000 -0.000
      -0.000  0.997  0.000 -0.000 -0.000
      -0.000  0.000  0.997  0.000 -0.000
       0.000 -0.000  0.000  0.986 -0.000
      -0.000 -0.000 -0.000 -0.000  0.997
     SPIN  2
     eigenvalues:
       0.033  0.034  0.034  0.612  0.612
     eigenvectors (columns):
       0.000 -0.040 -0.002  0.532 -0.846
       0.577  0.446 -0.683 -0.015 -0.029
       0.577  0.369  0.728  0.032  0.001
       0.000 -0.002  0.040 -0.846 -0.532
      -0.577  0.815  0.044  0.017 -0.028
     occupation matrix ns (before diag.):
       0.611  0.009  0.009  0.000  0.019
       0.009  0.034 -0.000  0.016  0.000
       0.009 -0.000  0.034 -0.016  0.000
       0.000  0.016 -0.016  0.611 -0.000
       0.019  0.000  0.000 -0.000  0.034
     ------------------------ ATOM    2 ------------------------
     Tr[ns(  2)] (up, down, total) =   1.32204  4.96328  6.28532
     Atomic magnetic moment for atom   2 =  -3.64125
     SPIN  1
     eigenvalues:
       0.034  0.034  0.034  0.610  0.610
     eigenvectors (columns):
      -0.000  0.026  0.003  0.540  0.841
      -0.577 -0.494  0.650 -0.010  0.019
      -0.577 -0.316 -0.753  0.022 -0.001
      -0.000  0.003 -0.026 -0.841  0.540
       0.577 -0.810 -0.103  0.012  0.018
     occupation matrix ns (before diag.):
       0.610  0.006  0.006  0.000  0.012
       0.006  0.034 -0.000  0.011  0.000
       0.006 -0.000  0.034 -0.011  0.000
       0.000  0.011 -0.011  0.610 -0.000
       0.012  0.000  0.000 -0.000  0.034
     SPIN  2
     eigenvalues:
       0.986  0.986  0.997  0.997  0.997
     eigenvectors (columns):
      -0.508 -0.860 -0.047  0.007  0.000
       0.019 -0.034  0.503  0.642 -0.577
      -0.039  0.000  0.304 -0.757 -0.577
       0.860 -0.508 -0.007 -0.047  0.000
      -0.020 -0.034  0.807 -0.115  0.577
     occupation matrix ns (before diag.):
       0.986 -0.000 -0.000  0.000 -0.000
      -0.000  0.997  0.000 -0.000 -0.000
      -0.000  0.000  0.997  0.000 -0.000
       0.000 -0.000  0.000  0.986 -0.000
      -0.000 -0.000 -0.000 -0.000  0.997

     Number of occupied Hubbard levels =   12.5716

     negative rho (up, down):  2.306E-04 2.240E-04

     HUBBARD ENERGY =    0.2060  (Ry)

     total cpu time spent up to now is      171.9 secs

     total energy              =    -741.42097839 Ry
     estimated scf accuracy    <       0.00007459 Ry

     total magnetization       =    -0.01 Bohr mag/cell
     absolute magnetization    =     7.44 Bohr mag/cell

     iteration # 24     ecut=    70.00 Ry     beta= 0.10
     Davidson diagonalization with overlap

---- Real-time Memory Report at c_bands before calling an iterative solver
           212 MiB given to the printing process from OS
           128 MiB allocation reported by mallinfo(arena+hblkhd)
          7714 MiB available memory on the node where the printing process lives
------------------
     ethr =  1.70E-07,  avg # of iterations =  1.8

     =================== HUBBARD OCCUPATIONS ===================
     ------------------------ ATOM    1 ------------------------
     Tr[ns(  1)] (up, down, total) =   4.96208  1.32573  6.28781
     Atomic magnetic moment for atom   1 =   3.63635
     SPIN  1
     eigenvalues:
       0.986  0.986  0.997  0.997  0.997
     eigenvectors (columns):
       0.584 -0.810 -0.049  0.010  0.000
      -0.017 -0.037  0.535  0.615 -0.577
       0.041  0.004  0.265 -0.771 -0.577
      -0.810 -0.584 -0.010 -0.049  0.000
       0.024 -0.033  0.800 -0.156  0.577
     occupation matrix ns (before diag.):
       0.986 -0.000 -0.000  0.000 -0.000
      -0.000  0.997  0.000 -0.000 -0.000
      -0.000  0.000  0.997  0.000 -0.000
       0.000 -0.000  0.000  0.986 -0.000
      -0.000 -0.000 -0.000 -0.000  0.997
     SPIN  2
     eigenvalues:
       0.033  0.034  0.034  0.613  0.613
     eigenvectors (columns):
      -0.000 -0.008 -0.037  0.565  0.824
      -0.577  0.775  0.255 -0.013  0.028
      -0.577 -0.608  0.544  0.031 -0.002
      -0.000 -0.037  0.008 -0.824  0.565
       0.577  0.167  0.799  0.018  0.026
     occupation matrix ns (before diag.):
       0.612  0.009  0.009  0.000  0.018
       0.009  0.034 -0.000  0.016  0.000
       0.009 -0.000  0.034 -0.016  0.000
       0.000  0.016 -0.016  0.612 -0.000
       0.018  0.000  0.000 -0.000  0.034
     ------------------------ ATOM    2 ------------------------
     Tr[ns(  2)] (up, down, total) =   1.32284  4.96318  6.28602
     Atomic magnetic moment for atom   2 =  -3.64034
     SPIN  1
     eigenvalues:
       0.034  0.034  0.034  0.610  0.610
     eigenvectors (columns):
      -0.000 -0.023 -0.008  0.714  0.700
      -0.577  0.627 -0.523 -0.005  0.019
      -0.577  0.139  0.804  0.019 -0.005
      -0.000 -0.008  0.023 -0.700  0.714
       0.577  0.766  0.282  0.014  0.014
     occupation matrix ns (before diag.):
       0.610  0.006  0.006  0.000  0.011
       0.006  0.034 -0.000  0.010  0.000
       0.006 -0.000  0.034 -0.010  0.000
       0.000  0.010 -0.010  0.610 -0.000
       0.011  0.000  0.000 -0.000  0.034
     SPIN  2
     eigenvalues:
       0.986  0.986  0.997  0.997  0.997
     eigenvectors (columns):
      -0.537 -0.842 -0.046  0.009  0.000
       0.018 -0.034  0.535  0.616 -0.577
      -0.038  0.002  0.266 -0.771 -0.577
       0.842 -0.537 -0.009 -0.046  0.000
      -0.021 -0.032  0.801 -0.155  0.577
     occupation matrix ns (before diag.):
       0.986 -0.000 -0.000  0.000 -0.000
      -0.000  0.997  0.000 -0.000 -0.000
      -0.000  0.000  0.997  0.000 -0.000
       0.000 -0.000  0.000  0.986 -0.000
      -0.000 -0.000 -0.000 -0.000  0.997

     Number of occupied Hubbard levels =   12.5738

     negative rho (up, down):  2.289E-04 2.226E-04

     HUBBARD ENERGY =    0.2068  (Ry)

     total cpu time spent up to now is      178.7 secs

     total energy              =    -741.42098916 Ry
     estimated scf accuracy    <       0.00006074 Ry

     total magnetization       =    -0.01 Bohr mag/cell
     absolute magnetization    =     7.43 Bohr mag/cell

     iteration # 25     ecut=    70.00 Ry     beta= 0.10
     Davidson diagonalization with overlap

---- Real-time Memory Report at c_bands before calling an iterative solver
           212 MiB given to the printing process from OS
           128 MiB allocation reported by mallinfo(arena+hblkhd)
          7714 MiB available memory on the node where the printing process lives
------------------
     ethr =  1.38E-07,  avg # of iterations =  1.2

     =================== HUBBARD OCCUPATIONS ===================
     ------------------------ ATOM    1 ------------------------
     Tr[ns(  1)] (up, down, total) =   4.96197  1.32613  6.28810
     Atomic magnetic moment for atom   1 =   3.63584
     SPIN  1
     eigenvalues:
       0.986  0.986  0.997  0.997  0.997
     eigenvectors (columns):
       0.508 -0.860 -0.049  0.011  0.000
      -0.020 -0.035  0.556  0.596 -0.577
       0.041  0.000  0.239 -0.780 -0.577
      -0.860 -0.508 -0.011 -0.049  0.000
       0.021 -0.035  0.795 -0.183  0.577
     occupation matrix ns (before diag.):
       0.986 -0.000 -0.000  0.000 -0.000
      -0.000  0.997  0.000 -0.000 -0.000
      -0.000  0.000  0.997  0.000 -0.000
       0.000 -0.000  0.000  0.986 -0.000
      -0.000 -0.000 -0.000 -0.000  0.997
     SPIN  2
     eigenvalues:
       0.033  0.034  0.034  0.613  0.613
     eigenvectors (columns):
      -0.000  0.037  0.003  0.728 -0.684
      -0.577 -0.465  0.670 -0.007 -0.029
      -0.577 -0.348 -0.738  0.029  0.009
      -0.000  0.003 -0.037 -0.684 -0.728
       0.577 -0.813 -0.068  0.022 -0.021
     occupation matrix ns (before diag.):
       0.612  0.009  0.009  0.000  0.017
       0.009  0.034 -0.000  0.015  0.000
       0.009 -0.000  0.034 -0.015  0.000
       0.000  0.015 -0.015  0.612 -0.000
       0.017  0.000  0.000 -0.000  0.034
     ------------------------ ATOM    2 ------------------------
     Tr[ns(  2)] (up, down, total) =   1.32295  4.96305  6.28600
     Atomic magnetic moment for atom   2 =  -3.64010
     SPIN  1
     eigenvalues:
       0.034  0.034  0.034  0.610  0.610
     eigenvectors (columns):
      -0.000 -0.023 -0.002  0.585  0.811
      -0.577  0.462 -0.673 -0.008  0.017
      -0.577  0.352  0.737  0.019 -0.002
      -0.000 -0.002  0.023 -0.811  0.585
       0.577  0.814  0.063  0.011  0.015
     occupation matrix ns (before diag.):
       0.610  0.005  0.005  0.000  0.011
       0.005  0.034 -0.000  0.009  0.000
       0.005 -0.000  0.034 -0.009  0.000
       0.000  0.009 -0.009  0.610 -0.000
       0.011  0.000  0.000 -0.000  0.034
     SPIN  2
     eigenvalues:
       0.986  0.986  0.997  0.997  0.997
     eigenvectors (columns):
      -0.554 -0.831 -0.046  0.007  0.000
       0.017 -0.034  0.515  0.632 -0.577
      -0.038  0.002  0.290 -0.762 -0.577
       0.831 -0.554 -0.007 -0.046  0.000
      -0.021 -0.031  0.805 -0.130  0.577
     occupation matrix ns (before diag.):
       0.986 -0.000 -0.000  0.000 -0.000
      -0.000  0.997  0.000 -0.000 -0.000
      -0.000  0.000  0.997  0.000 -0.000
       0.000 -0.000  0.000  0.986 -0.000
      -0.000 -0.000 -0.000 -0.000  0.997

     Number of occupied Hubbard levels =   12.5741

     negative rho (up, down):  2.275E-04 2.223E-04

     HUBBARD ENERGY =    0.2064  (Ry)

     total cpu time spent up to now is      185.2 secs

     total energy              =    -741.42101220 Ry
     estimated scf accuracy    <       0.00005339 Ry

     total magnetization       =    -0.01 Bohr mag/cell
     absolute magnetization    =     7.43 Bohr mag/cell

     iteration # 26     ecut=    70.00 Ry     beta= 0.10
     Davidson diagonalization with overlap

---- Real-time Memory Report at c_bands before calling an iterative solver
           212 MiB given to the printing process from OS
           128 MiB allocation reported by mallinfo(arena+hblkhd)
          7715 MiB available memory on the node where the printing process lives
------------------
     ethr =  1.21E-07,  avg # of iterations =  2.1

     =================== HUBBARD OCCUPATIONS ===================
     ------------------------ ATOM    1 ------------------------
     Tr[ns(  1)] (up, down, total) =   4.96189  1.32600  6.28789
     Atomic magnetic moment for atom   1 =   3.63590
     SPIN  1
     eigenvalues:
       0.986  0.986  0.997  0.997  0.997
     eigenvectors (columns):
      -0.509 -0.859 -0.049 -0.008 -0.000
       0.020 -0.035  0.518 -0.630  0.577
      -0.040  0.000  0.286  0.764  0.577
       0.859 -0.509 -0.008  0.049 -0.000
      -0.021 -0.035  0.804  0.134 -0.577
     occupation matrix ns (before diag.):
       0.986 -0.000 -0.000  0.000 -0.000
      -0.000  0.997  0.000 -0.000 -0.000
      -0.000  0.000  0.997  0.000 -0.000
       0.000 -0.000  0.000  0.986 -0.000
      -0.000 -0.000 -0.000 -0.000  0.997
     SPIN  2
     eigenvalues:
       0.033  0.034  0.034  0.613  0.613
     eigenvectors (columns):
      -0.000 -0.036  0.001 -0.362  0.932
      -0.577  0.435  0.690  0.018  0.023
      -0.577  0.380 -0.722 -0.029  0.004
      -0.000 -0.001 -0.036  0.932  0.362
       0.577  0.815 -0.032 -0.011  0.027
     occupation matrix ns (before diag.):
       0.612  0.008  0.008  0.000  0.017
       0.008  0.034 -0.000  0.015  0.000
       0.008 -0.000  0.034 -0.015  0.000
       0.000  0.015 -0.015  0.612 -0.000
       0.017  0.000  0.000 -0.000  0.034
     ------------------------ ATOM    2 ------------------------
     Tr[ns(  2)] (up, down, total) =   1.32330  4.96278  6.28607
     Atomic magnetic moment for atom   2 =  -3.63948
     SPIN  1
     eigenvalues:
       0.034  0.034  0.034  0.611  0.611
     eigenvectors (columns):
      -0.000  0.021  0.004  0.544  0.839
      -0.577 -0.544  0.609 -0.008  0.016
      -0.577 -0.255 -0.775  0.018 -0.001
      -0.000  0.004 -0.021 -0.839  0.544
       0.577 -0.799 -0.167  0.010  0.015
     occupation matrix ns (before diag.):
       0.610  0.005  0.005  0.000  0.010
       0.005  0.034 -0.000  0.009  0.000
       0.005 -0.000  0.034 -0.009  0.000
       0.000  0.009 -0.009  0.610 -0.000
       0.010  0.000  0.000 -0.000  0.034
     SPIN  2
     eigenvalues:
       0.986  0.986  0.997  0.997  0.997
     eigenvectors (columns):
      -0.660 -0.750 -0.045  0.008  0.000
       0.012 -0.035  0.525  0.624 -0.577
      -0.037  0.007  0.278 -0.767 -0.577
       0.750 -0.660 -0.008 -0.045  0.000
      -0.025 -0.028  0.803 -0.143  0.577
     occupation matrix ns (before diag.):
       0.986 -0.000 -0.000  0.000 -0.000
      -0.000  0.997  0.000 -0.000 -0.000
      -0.000  0.000  0.997  0.000 -0.000
       0.000 -0.000  0.000  0.986 -0.000
      -0.000 -0.000 -0.000 -0.000  0.997

     Number of occupied Hubbard levels =   12.5740

     negative rho (up, down):  2.275E-04 2.231E-04

     HUBBARD ENERGY =    0.2065  (Ry)

     total cpu time spent up to now is      192.7 secs

     total energy              =    -741.42104120 Ry
     estimated scf accuracy    <       0.00005242 Ry

     total magnetization       =    -0.01 Bohr mag/cell
     absolute magnetization    =     7.43 Bohr mag/cell

     iteration # 27     ecut=    70.00 Ry     beta= 0.10
     Davidson diagonalization with overlap

---- Real-time Memory Report at c_bands before calling an iterative solver
           212 MiB given to the printing process from OS
           128 MiB allocation reported by mallinfo(arena+hblkhd)
          7714 MiB available memory on the node where the printing process lives
------------------
     ethr =  1.19E-07,  avg # of iterations =  1.6

     =================== HUBBARD OCCUPATIONS ===================
     ------------------------ ATOM    1 ------------------------
     Tr[ns(  1)] (up, down, total) =   4.96202  1.32643  6.28844
     Atomic magnetic moment for atom   1 =   3.63559
     SPIN  1
     eigenvalues:
       0.986  0.986  0.997  0.997  0.997
     eigenvectors (columns):
       0.681 -0.731 -0.048  0.011  0.000
      -0.012 -0.038  0.551  0.601 -0.577
       0.039  0.009  0.245 -0.778 -0.577
      -0.731 -0.681 -0.011 -0.048  0.000
       0.027 -0.029  0.796 -0.177  0.577
     occupation matrix ns (before diag.):
       0.986 -0.000 -0.000  0.000 -0.000
      -0.000  0.997  0.000 -0.000 -0.000
      -0.000  0.000  0.997  0.000 -0.000
       0.000 -0.000  0.000  0.986 -0.000
      -0.000 -0.000 -0.000 -0.000  0.997
     SPIN  2
     eigenvalues:
       0.033  0.034  0.034  0.613  0.613
     eigenvectors (columns):
      -0.000  0.035  0.005  0.559  0.828
      -0.577 -0.508  0.638 -0.013  0.026
      -0.577 -0.299 -0.759  0.029 -0.002
      -0.000  0.005 -0.035 -0.828  0.559
       0.577 -0.807 -0.121  0.016  0.024
     occupation matrix ns (before diag.):
       0.612  0.008  0.008  0.000  0.017
       0.008  0.034 -0.000  0.014  0.000
       0.008 -0.000  0.034 -0.014  0.000
       0.000  0.014 -0.014  0.612 -0.000
       0.017  0.000  0.000 -0.000  0.034
     ------------------------ ATOM    2 ------------------------
     Tr[ns(  2)] (up, down, total) =   1.32393  4.96278  6.28671
     Atomic magnetic moment for atom   2 =  -3.63884
     SPIN  1
     eigenvalues:
       0.034  0.034  0.034  0.611  0.611
     eigenvectors (columns):
      -0.000 -0.003  0.021 -0.570  0.822
      -0.577  0.751 -0.321  0.007  0.016
      -0.577 -0.653 -0.489 -0.017 -0.001
      -0.000 -0.021 -0.003  0.822  0.570
       0.577  0.097 -0.811 -0.010  0.014
     occupation matrix ns (before diag.):
       0.610  0.005  0.005  0.000  0.010
       0.005  0.034 -0.000  0.009  0.000
       0.005 -0.000  0.034 -0.009  0.000
       0.000  0.009 -0.009  0.610 -0.000
       0.010  0.000  0.000 -0.000  0.034
     SPIN  2
     eigenvalues:
       0.986  0.986  0.997  0.997  0.997
     eigenvectors (columns):
      -0.676 -0.735 -0.045  0.009  0.000
       0.011 -0.036  0.543  0.608 -0.577
      -0.036  0.008  0.255 -0.775 -0.577
       0.735 -0.676 -0.009 -0.045  0.000
      -0.025 -0.027  0.798 -0.167  0.577
     occupation matrix ns (before diag.):
       0.986 -0.000 -0.000  0.000 -0.000
      -0.000  0.997  0.000 -0.000 -0.000
      -0.000  0.000  0.997  0.000 -0.000
       0.000 -0.000  0.000  0.986 -0.000
      -0.000 -0.000 -0.000 -0.000  0.997

     Number of occupied Hubbard levels =   12.5752

     negative rho (up, down):  2.280E-04 2.238E-04

     HUBBARD ENERGY =    0.2066  (Ry)

     total cpu time spent up to now is      199.2 secs

     total energy              =    -741.42103911 Ry
     estimated scf accuracy    <       0.00005752 Ry

     total magnetization       =    -0.01 Bohr mag/cell
     absolute magnetization    =     7.43 Bohr mag/cell

     iteration # 28     ecut=    70.00 Ry     beta= 0.10
     Davidson diagonalization with overlap

---- Real-time Memory Report at c_bands before calling an iterative solver
           212 MiB given to the printing process from OS
           128 MiB allocation reported by mallinfo(arena+hblkhd)
          7715 MiB available memory on the node where the printing process lives
------------------
     ethr =  1.19E-07,  avg # of iterations =  1.1

     =================== HUBBARD OCCUPATIONS ===================
     ------------------------ ATOM    1 ------------------------
     Tr[ns(  1)] (up, down, total) =   4.96213  1.32615  6.28828
     Atomic magnetic moment for atom   1 =   3.63599
     SPIN  1
     eigenvalues:
       0.986  0.986  0.997  0.997  0.997
     eigenvectors (columns):
       0.628 -0.776 -0.048  0.009  0.000
      -0.014 -0.037  0.524  0.625 -0.577
       0.040  0.006  0.279 -0.766 -0.577
      -0.776 -0.628 -0.009 -0.048  0.000
       0.025 -0.031  0.803 -0.141  0.577
     occupation matrix ns (before diag.):
       0.986 -0.000 -0.000  0.000 -0.000
      -0.000  0.997  0.000 -0.000 -0.000
      -0.000  0.000  0.997  0.000 -0.000
       0.000 -0.000  0.000  0.986 -0.000
      -0.000 -0.000 -0.000 -0.000  0.997
     SPIN  2
     eigenvalues:
       0.033  0.034  0.034  0.613  0.613
     eigenvectors (columns):
      -0.000  0.034  0.009  0.634  0.772
      -0.577 -0.579  0.575 -0.010  0.027
      -0.577 -0.208 -0.789  0.028 -0.005
      -0.000  0.009 -0.034 -0.772  0.634
       0.577 -0.787 -0.214  0.018  0.022
     occupation matrix ns (before diag.):
       0.612  0.008  0.008  0.000  0.017
       0.008  0.034 -0.000  0.014  0.000
       0.008 -0.000  0.034 -0.014  0.000
       0.000  0.014 -0.014  0.612 -0.000
       0.017  0.000  0.000 -0.000  0.034
     ------------------------ ATOM    2 ------------------------
     Tr[ns(  2)] (up, down, total) =   1.32340  4.96284  6.28624
     Atomic magnetic moment for atom   2 =  -3.63944
     SPIN  1
     eigenvalues:
       0.034  0.034  0.034  0.611  0.611
     eigenvectors (columns):
      -0.000 -0.021 -0.002  0.633  0.774
      -0.577  0.487 -0.655 -0.006  0.016
      -0.577  0.324  0.749  0.017 -0.003
       0.000 -0.002  0.021 -0.774  0.633
       0.577  0.811  0.094  0.011  0.013
     occupation matrix ns (before diag.):
       0.610  0.005  0.005  0.000  0.010
       0.005  0.034 -0.000  0.009  0.000
       0.005 -0.000  0.034 -0.009  0.000
       0.000  0.009 -0.009  0.610 -0.000
       0.010  0.000  0.000 -0.000  0.034
     SPIN  2
     eigenvalues:
       0.986  0.986  0.997  0.997  0.997
     eigenvectors (columns):
      -0.659 -0.750 -0.045  0.008  0.000
       0.012 -0.035  0.532  0.618 -0.577
      -0.037  0.007  0.270 -0.770 -0.577
       0.750 -0.659 -0.008 -0.045  0.000
      -0.025 -0.028  0.801 -0.151  0.577
     occupation matrix ns (before diag.):
       0.986 -0.000 -0.000  0.000 -0.000
      -0.000  0.997  0.000 -0.000 -0.000
      -0.000  0.000  0.997  0.000 -0.000
       0.000 -0.000  0.000  0.986 -0.000
      -0.000 -0.000 -0.000 -0.000  0.997

     Number of occupied Hubbard levels =   12.5745

     negative rho (up, down):  2.297E-04 2.266E-04

     HUBBARD ENERGY =    0.2063  (Ry)

     total cpu time spent up to now is      205.8 secs

     total energy              =    -741.42102316 Ry
     estimated scf accuracy    <       0.00005069 Ry

     total magnetization       =    -0.01 Bohr mag/cell
     absolute magnetization    =     7.43 Bohr mag/cell

     iteration # 29     ecut=    70.00 Ry     beta= 0.10
     Davidson diagonalization with overlap

---- Real-time Memory Report at c_bands before calling an iterative solver
           212 MiB given to the printing process from OS
           128 MiB allocation reported by mallinfo(arena+hblkhd)
          7714 MiB available memory on the node where the printing process lives
------------------
     ethr =  1.15E-07,  avg # of iterations =  2.0

     =================== HUBBARD OCCUPATIONS ===================
     ------------------------ ATOM    1 ------------------------
     Tr[ns(  1)] (up, down, total) =   4.96244  1.32243  6.28486
     Atomic magnetic moment for atom   1 =   3.64001
     SPIN  1
     eigenvalues:
       0.986  0.986  0.997  0.997  0.997
     eigenvectors (columns):
      -0.530 -0.846 -0.049 -0.008 -0.000
       0.019 -0.036  0.521 -0.628  0.577
      -0.040  0.001  0.283  0.765  0.577
       0.846 -0.530 -0.008  0.049 -0.000
      -0.021 -0.034  0.804  0.137 -0.577
     occupation matrix ns (before diag.):
       0.986 -0.000 -0.000  0.000 -0.000
      -0.000  0.997  0.000 -0.000 -0.000
      -0.000  0.000  0.997  0.000 -0.000
       0.000 -0.000  0.000  0.986 -0.000
      -0.000 -0.000 -0.000 -0.000  0.997
     SPIN  2
     eigenvalues:
       0.033  0.034  0.034  0.611  0.611
     eigenvectors (columns):
      -0.000 -0.033 -0.012  0.822 -0.569
      -0.577  0.628 -0.521 -0.002 -0.029
      -0.577  0.137  0.804  0.026  0.012
      -0.000 -0.012  0.033 -0.569 -0.822
       0.577  0.765  0.283  0.024 -0.017
     occupation matrix ns (before diag.):
       0.610  0.008  0.008  0.000  0.017
       0.008  0.034 -0.000  0.015  0.000
       0.008 -0.000  0.034 -0.015  0.000
       0.000  0.015 -0.015  0.610 -0.000
       0.017  0.000  0.000 -0.000  0.034
     ------------------------ ATOM    2 ------------------------
     Tr[ns(  2)] (up, down, total) =   1.32200  4.96296  6.28496
     Atomic magnetic moment for atom   2 =  -3.64096
     SPIN  1
     eigenvalues:
       0.034  0.034  0.034  0.610  0.610
     eigenvectors (columns):
      -0.000  0.022  0.004  0.588  0.809
      -0.577 -0.516  0.633 -0.007  0.016
      -0.577 -0.290 -0.763  0.018 -0.002
      -0.000  0.004 -0.022 -0.809  0.588
       0.577 -0.806 -0.130  0.011  0.015
     occupation matrix ns (before diag.):
       0.610  0.005  0.005  0.000  0.010
       0.005  0.034 -0.000  0.009  0.000
       0.005 -0.000  0.034 -0.009  0.000
       0.000  0.009 -0.009  0.610 -0.000
       0.010  0.000  0.000 -0.000  0.034
     SPIN  2
     eigenvalues:
       0.986  0.986  0.997  0.997  0.997
     eigenvectors (columns):
      -0.507 -0.861 -0.045  0.009  0.000
       0.019 -0.033  0.536  0.615 -0.577
      -0.038  0.000  0.265 -0.771 -0.577
       0.861 -0.507 -0.009 -0.045  0.000
      -0.019 -0.032  0.801 -0.156  0.577
     occupation matrix ns (before diag.):
       0.986 -0.000 -0.000  0.000 -0.000
      -0.000  0.997  0.000 -0.000 -0.000
      -0.000  0.000  0.997  0.000 -0.000
       0.000 -0.000  0.000  0.986 -0.000
      -0.000 -0.000 -0.000 -0.000  0.997

     Number of occupied Hubbard levels =   12.5698

     negative rho (up, down):  2.294E-04 2.263E-04

     HUBBARD ENERGY =    0.2063  (Ry)

     total cpu time spent up to now is      212.5 secs

     total energy              =    -741.42102119 Ry
     estimated scf accuracy    <       0.00004078 Ry

     total magnetization       =    -0.00 Bohr mag/cell
     absolute magnetization    =     7.44 Bohr mag/cell

     iteration # 30     ecut=    70.00 Ry     beta= 0.10
     Davidson diagonalization with overlap

---- Real-time Memory Report at c_bands before calling an iterative solver
           212 MiB given to the printing process from OS
           128 MiB allocation reported by mallinfo(arena+hblkhd)
          7210 MiB available memory on the node where the printing process lives
------------------
     ethr =  9.27E-08,  avg # of iterations =  1.3

     =================== HUBBARD OCCUPATIONS ===================
     ------------------------ ATOM    1 ------------------------
     Tr[ns(  1)] (up, down, total) =   4.96243  1.32298  6.28540
     Atomic magnetic moment for atom   1 =   3.63945
     SPIN  1
     eigenvalues:
       0.986  0.986  0.997  0.997  0.997
     eigenvectors (columns):
       0.671 -0.740 -0.048  0.012  0.000
      -0.012 -0.038  0.568  0.585 -0.577
       0.039  0.008  0.223 -0.784 -0.577
      -0.740 -0.671 -0.012 -0.048  0.000
       0.027 -0.030  0.791 -0.199  0.577
     occupation matrix ns (before diag.):
       0.986 -0.000 -0.000  0.000 -0.000
      -0.000  0.997  0.000 -0.000 -0.000
      -0.000  0.000  0.997  0.000 -0.000
       0.000 -0.000  0.000  0.986 -0.000
      -0.000 -0.000 -0.000 -0.000  0.997
     SPIN  2
     eigenvalues:
       0.033  0.034  0.034  0.611  0.611
     eigenvectors (columns):
      -0.000  0.035  0.007  0.822 -0.568
      -0.577 -0.536  0.616 -0.002 -0.029
      -0.577 -0.265 -0.772  0.026  0.012
      -0.000  0.007 -0.035 -0.568 -0.822
       0.577 -0.801 -0.156  0.024 -0.016
     occupation matrix ns (before diag.):
       0.610  0.008  0.008  0.000  0.017
       0.008  0.034 -0.000  0.014  0.000
       0.008 -0.000  0.034 -0.014  0.000
       0.000  0.014 -0.014  0.610 -0.000
       0.017  0.000  0.000 -0.000  0.034
     ------------------------ ATOM    2 ------------------------
     Tr[ns(  2)] (up, down, total) =   1.32194  4.96295  6.28489
     Atomic magnetic moment for atom   2 =  -3.64102
     SPIN  1
     eigenvalues:
       0.034  0.034  0.034  0.610  0.610
     eigenvectors (columns):
      -0.000  0.013  0.017  0.510  0.860
      -0.577 -0.810  0.100 -0.009  0.015
      -0.577  0.318 -0.752  0.018 -0.000
      -0.000  0.017 -0.013 -0.860  0.510
       0.577 -0.492 -0.651  0.009  0.015
     occupation matrix ns (before diag.):
       0.610  0.005  0.005  0.000  0.010
       0.005  0.034 -0.000  0.009  0.000
       0.005 -0.000  0.034 -0.009  0.000
       0.000  0.009 -0.009  0.610 -0.000
       0.010  0.000  0.000 -0.000  0.034
     SPIN  2
     eigenvalues:
       0.986  0.986  0.997  0.997  0.997
     eigenvectors (columns):
      -0.605 -0.795 -0.045  0.008  0.000
       0.015 -0.035  0.525  0.624 -0.577
      -0.037  0.005  0.278 -0.767 -0.577
       0.795 -0.605 -0.008 -0.045  0.000
      -0.023 -0.030  0.803 -0.142  0.577
     occupation matrix ns (before diag.):
       0.986 -0.000 -0.000  0.000 -0.000
      -0.000  0.997  0.000 -0.000 -0.000
      -0.000  0.000  0.997  0.000 -0.000
       0.000 -0.000  0.000  0.986 -0.000
      -0.000 -0.000 -0.000 -0.000  0.997

     Number of occupied Hubbard levels =   12.5703

     negative rho (up, down):  2.310E-04 2.282E-04

     HUBBARD ENERGY =    0.2062  (Ry)

     total cpu time spent up to now is      218.5 secs

     total energy              =    -741.42102029 Ry
     estimated scf accuracy    <       0.00003903 Ry

     total magnetization       =    -0.00 Bohr mag/cell
     absolute magnetization    =     7.44 Bohr mag/cell

     iteration # 31     ecut=    70.00 Ry     beta= 0.10
     Davidson diagonalization with overlap

---- Real-time Memory Report at c_bands before calling an iterative solver
           212 MiB given to the printing process from OS
           128 MiB allocation reported by mallinfo(arena+hblkhd)
          7711 MiB available memory on the node where the printing process lives
------------------
     ethr =  8.87E-08,  avg # of iterations =  2.4

     =================== HUBBARD OCCUPATIONS ===================
     ------------------------ ATOM    1 ------------------------
     Tr[ns(  1)] (up, down, total) =   4.96259  1.32105  6.28364
     Atomic magnetic moment for atom   1 =   3.64154
     SPIN  1
     eigenvalues:
       0.986  0.986  0.997  0.997  0.997
     eigenvectors (columns):
      -0.663 -0.747 -0.049 -0.008 -0.000
       0.013 -0.039  0.510 -0.636  0.577
      -0.040  0.008  0.296  0.760  0.577
       0.747 -0.663 -0.008  0.049 -0.000
      -0.027 -0.030  0.806  0.124 -0.577
     occupation matrix ns (before diag.):
       0.986 -0.000 -0.000  0.000 -0.000
      -0.000  0.997  0.000 -0.000 -0.000
      -0.000  0.000  0.997  0.000 -0.000
       0.000 -0.000  0.000  0.986 -0.000
      -0.000 -0.000 -0.000 -0.000  0.997
     SPIN  2
     eigenvalues:
       0.033  0.034  0.034  0.610  0.610
     eigenvectors (columns):
      -0.000 -0.035  0.013 -0.507  0.861
      -0.577  0.633  0.515  0.015  0.026
      -0.577  0.129 -0.806 -0.030 -0.000
      -0.000 -0.013 -0.035  0.861  0.507
       0.577  0.762 -0.291 -0.015  0.026
     occupation matrix ns (before diag.):
       0.610  0.009  0.009  0.000  0.017
       0.009  0.034 -0.000  0.015  0.000
       0.009 -0.000  0.034 -0.015  0.000
       0.000  0.015 -0.015  0.610 -0.000
       0.017  0.000  0.000 -0.000  0.034
     ------------------------ ATOM    2 ------------------------
     Tr[ns(  2)] (up, down, total) =   1.32002  4.96305  6.28307
     Atomic magnetic moment for atom   2 =  -3.64303
     SPIN  1
     eigenvalues:
       0.034  0.034  0.034  0.609  0.609
     eigenvectors (columns):
      -0.000  0.024  0.002  0.455  0.890
      -0.577 -0.475  0.664 -0.011  0.016
      -0.577 -0.338 -0.743  0.019  0.001
      -0.000  0.002 -0.024 -0.890  0.455
       0.577 -0.812 -0.079  0.009  0.017
     occupation matrix ns (before diag.):
       0.609  0.006  0.006  0.000  0.011
       0.006  0.034 -0.000  0.010  0.000
       0.006 -0.000  0.034 -0.010  0.000
       0.000  0.010 -0.010  0.609 -0.000
       0.011  0.000  0.000 -0.000  0.034
     SPIN  2
     eigenvalues:
       0.986  0.986  0.997  0.997  0.997
     eigenvectors (columns):
      -0.611 -0.790 -0.046  0.006  0.000
       0.014 -0.035  0.497  0.647 -0.577
      -0.038  0.005  0.311 -0.754 -0.577
       0.790 -0.611 -0.006 -0.046  0.000
      -0.023 -0.030  0.809 -0.107  0.577
     occupation matrix ns (before diag.):
       0.986 -0.000 -0.000  0.000 -0.000
      -0.000  0.997  0.000 -0.000 -0.000
      -0.000  0.000  0.997  0.000 -0.000
       0.000 -0.000  0.000  0.986 -0.000
      -0.000 -0.000 -0.000 -0.000  0.997

     Number of occupied Hubbard levels =   12.5667

     negative rho (up, down):  2.304E-04 2.275E-04

     HUBBARD ENERGY =    0.2063  (Ry)

     total cpu time spent up to now is      225.6 secs

     total energy              =    -741.42101564 Ry
     estimated scf accuracy    <       0.00007712 Ry

     total magnetization       =    -0.00 Bohr mag/cell
     absolute magnetization    =     7.44 Bohr mag/cell

     iteration # 32     ecut=    70.00 Ry     beta= 0.10
     Davidson diagonalization with overlap

---- Real-time Memory Report at c_bands before calling an iterative solver
           212 MiB given to the printing process from OS
           128 MiB allocation reported by mallinfo(arena+hblkhd)
          7713 MiB available memory on the node where the printing process lives
------------------
     ethr =  8.87E-08,  avg # of iterations =  1.0

     =================== HUBBARD OCCUPATIONS ===================
     ------------------------ ATOM    1 ------------------------
     Tr[ns(  1)] (up, down, total) =   4.96251  1.32158  6.28409
     Atomic magnetic moment for atom   1 =   3.64093
     SPIN  1
     eigenvalues:
       0.986  0.986  0.997  0.997  0.997
     eigenvectors (columns):
      -0.634 -0.772 -0.049 -0.007 -0.000
       0.014 -0.038  0.508 -0.638  0.577
      -0.040  0.007  0.299  0.759  0.577
       0.772 -0.634 -0.007  0.049 -0.000
      -0.026 -0.031  0.807  0.121 -0.577
     occupation matrix ns (before diag.):
       0.986 -0.000 -0.000  0.000 -0.000
      -0.000  0.997  0.000 -0.000 -0.000
      -0.000  0.000  0.997  0.000 -0.000
       0.000 -0.000  0.000  0.986 -0.000
      -0.000 -0.000 -0.000 -0.000  0.997
     SPIN  2
     eigenvalues:
       0.033  0.034  0.034  0.611  0.611
     eigenvectors (columns):
      -0.000  0.036  0.004  0.590  0.807
      -0.577 -0.488  0.654 -0.012  0.027
      -0.577 -0.322 -0.750  0.030 -0.003
      -0.000  0.004 -0.036 -0.807  0.590
       0.577 -0.810 -0.096  0.018  0.024
     occupation matrix ns (before diag.):
       0.610  0.009  0.009  0.000  0.017
       0.009  0.034 -0.000  0.015  0.000
       0.009 -0.000  0.034 -0.015  0.000
       0.000  0.015 -0.015  0.610 -0.000
       0.017  0.000  0.000 -0.000  0.034
     ------------------------ ATOM    2 ------------------------
     Tr[ns(  2)] (up, down, total) =   1.32132  4.96300  6.28432
     Atomic magnetic moment for atom   2 =  -3.64167
     SPIN  1
     eigenvalues:
       0.034  0.034  0.034  0.610  0.610
     eigenvectors (columns):
      -0.000  0.023  0.005  0.341  0.940
      -0.577 -0.550  0.603 -0.012  0.015
      -0.577 -0.247 -0.778  0.019  0.003
      -0.000  0.005 -0.023 -0.940  0.341
       0.577 -0.797 -0.175  0.006  0.018
     occupation matrix ns (before diag.):
       0.610  0.005  0.005  0.000  0.011
       0.005  0.034 -0.000  0.009  0.000
       0.005 -0.000  0.034 -0.009  0.000
       0.000  0.009 -0.009  0.610 -0.000
       0.011  0.000  0.000 -0.000  0.034
     SPIN  2
     eigenvalues:
       0.986  0.986  0.997  0.997  0.997
     eigenvectors (columns):
      -0.423 -0.905 -0.046  0.010  0.000
       0.022 -0.031  0.547  0.605 -0.577
      -0.038 -0.003  0.250 -0.776 -0.577
       0.905 -0.423 -0.010 -0.046  0.000
      -0.016 -0.034  0.797 -0.171  0.577
     occupation matrix ns (before diag.):
       0.986 -0.000 -0.000  0.000 -0.000
      -0.000  0.997  0.000 -0.000 -0.000
      -0.000  0.000  0.997  0.000 -0.000
       0.000 -0.000  0.000  0.986 -0.000
      -0.000 -0.000 -0.000 -0.000  0.997

     Number of occupied Hubbard levels =   12.5684

     negative rho (up, down):  2.305E-04 2.275E-04

     HUBBARD ENERGY =    0.2063  (Ry)

     total cpu time spent up to now is      232.0 secs

     total energy              =    -741.42100939 Ry
     estimated scf accuracy    <       0.00006120 Ry

     total magnetization       =    -0.00 Bohr mag/cell
     absolute magnetization    =     7.44 Bohr mag/cell

     iteration # 33     ecut=    70.00 Ry     beta= 0.10
     Davidson diagonalization with overlap

---- Real-time Memory Report at c_bands before calling an iterative solver
           212 MiB given to the printing process from OS
           128 MiB allocation reported by mallinfo(arena+hblkhd)
          7714 MiB available memory on the node where the printing process lives
------------------
     ethr =  8.87E-08,  avg # of iterations =  1.0

     =================== HUBBARD OCCUPATIONS ===================
     ------------------------ ATOM    1 ------------------------
     Tr[ns(  1)] (up, down, total) =   4.96252  1.32159  6.28411
     Atomic magnetic moment for atom   1 =   3.64093
     SPIN  1
     eigenvalues:
       0.986  0.986  0.997  0.997  0.997
     eigenvectors (columns):
      -0.501 -0.864 -0.049 -0.008 -0.000
       0.020 -0.035  0.517 -0.631  0.577
      -0.041  0.000  0.288  0.763  0.577
       0.864 -0.501 -0.008  0.049 -0.000
      -0.020 -0.035  0.805  0.132 -0.577
     occupation matrix ns (before diag.):
       0.986 -0.000 -0.000  0.000 -0.000
      -0.000  0.997  0.000 -0.000 -0.000
      -0.000  0.000  0.997  0.000 -0.000
       0.000 -0.000  0.000  0.986 -0.000
      -0.000 -0.000 -0.000 -0.000  0.997
     SPIN  2
     eigenvalues:
       0.033  0.034  0.034  0.611  0.611
     eigenvectors (columns):
      -0.000  0.036  0.002  0.705  0.708
      -0.577 -0.451  0.680 -0.008  0.029
      -0.577 -0.363 -0.731  0.029 -0.008
      -0.000  0.002 -0.036 -0.708  0.705
       0.577 -0.814 -0.050  0.021  0.021
     occupation matrix ns (before diag.):
       0.610  0.009  0.009  0.000  0.017
       0.009  0.034 -0.000  0.015  0.000
       0.009 -0.000  0.034 -0.015  0.000
       0.000  0.015 -0.015  0.610 -0.000
       0.017  0.000  0.000 -0.000  0.034
     ------------------------ ATOM    2 ------------------------
     Tr[ns(  2)] (up, down, total) =   1.32114  4.96300  6.28415
     Atomic magnetic moment for atom   2 =  -3.64186
     SPIN  1
     eigenvalues:
       0.034  0.034  0.034  0.610  0.610
     eigenvectors (columns):
      -0.000  0.023  0.003  0.517  0.856
      -0.577 -0.496  0.648 -0.009  0.017
      -0.577 -0.313 -0.754  0.019 -0.000
      -0.000  0.003 -0.023 -0.856  0.517
       0.577 -0.809 -0.106  0.010  0.016
     occupation matrix ns (before diag.):
       0.609  0.005  0.005  0.000  0.011
       0.005  0.034 -0.000  0.009  0.000
       0.005 -0.000  0.034 -0.009  0.000
       0.000  0.009 -0.009  0.609 -0.000
       0.011  0.000  0.000 -0.000  0.034
     SPIN  2
     eigenvalues:
       0.986  0.986  0.997  0.997  0.997
     eigenvectors (columns):
      -0.593 -0.804 -0.046  0.008  0.000
       0.015 -0.035  0.521  0.627 -0.577
      -0.038  0.004  0.283 -0.765 -0.577
       0.804 -0.593 -0.008 -0.046  0.000
      -0.023 -0.031  0.804 -0.138  0.577
     occupation matrix ns (before diag.):
       0.986 -0.000 -0.000  0.000 -0.000
      -0.000  0.997  0.000 -0.000 -0.000
      -0.000  0.000  0.997  0.000 -0.000
       0.000 -0.000  0.000  0.986 -0.000
      -0.000 -0.000 -0.000 -0.000  0.997

     Number of occupied Hubbard levels =   12.5683

     negative rho (up, down):  2.305E-04 2.277E-04

     HUBBARD ENERGY =    0.2063  (Ry)

     total cpu time spent up to now is      239.0 secs

     total energy              =    -741.42101329 Ry
     estimated scf accuracy    <       0.00006891 Ry

     total magnetization       =    -0.00 Bohr mag/cell
     absolute magnetization    =     7.44 Bohr mag/cell

     iteration # 34     ecut=    70.00 Ry     beta= 0.10
     Davidson diagonalization with overlap

---- Real-time Memory Report at c_bands before calling an iterative solver
           212 MiB given to the printing process from OS
           128 MiB allocation reported by mallinfo(arena+hblkhd)
          7691 MiB available memory on the node where the printing process lives
------------------
     ethr =  8.87E-08,  avg # of iterations =  1.0

     =================== HUBBARD OCCUPATIONS ===================
     ------------------------ ATOM    1 ------------------------
     Tr[ns(  1)] (up, down, total) =   4.96255  1.32145  6.28399
     Atomic magnetic moment for atom   1 =   3.64110
     SPIN  1
     eigenvalues:
       0.986  0.986  0.997  0.997  0.997
     eigenvectors (columns):
      -0.770 -0.636 -0.049  0.008  0.000
       0.007 -0.040  0.513  0.634 -0.577
      -0.038  0.014  0.293 -0.761 -0.577
       0.636 -0.770 -0.008 -0.049  0.000
      -0.031 -0.026  0.806 -0.127  0.577
     occupation matrix ns (before diag.):
       0.986 -0.000 -0.000  0.000 -0.000
      -0.000  0.997  0.000 -0.000 -0.000
      -0.000  0.000  0.997  0.000 -0.000
       0.000 -0.000  0.000  0.986 -0.000
      -0.000 -0.000 -0.000 -0.000  0.997
     SPIN  2
     eigenvalues:
       0.033  0.034  0.034  0.610  0.610
     eigenvectors (columns):
      -0.000 -0.034 -0.013  0.449  0.893
      -0.577  0.639 -0.508 -0.016  0.025
      -0.577  0.120  0.807  0.030  0.002
      -0.000 -0.013  0.034 -0.893  0.449
       0.577  0.759  0.299  0.013  0.027
     occupation matrix ns (before diag.):
       0.610  0.009  0.009  0.000  0.017
       0.009  0.034 -0.000  0.015  0.000
       0.009 -0.000  0.034 -0.015  0.000
       0.000  0.015 -0.015  0.610 -0.000
       0.017  0.000  0.000 -0.000  0.034
     ------------------------ ATOM    2 ------------------------
     Tr[ns(  2)] (up, down, total) =   1.32096  4.96301  6.28397
     Atomic magnetic moment for atom   2 =  -3.64205
     SPIN  1
     eigenvalues:
       0.034  0.034  0.034  0.610  0.610
     eigenvectors (columns):
      -0.000  0.023  0.004  0.500  0.866
      -0.577 -0.513  0.635 -0.009  0.016
      -0.577 -0.293 -0.762  0.019  0.000
      -0.000  0.004 -0.023 -0.866  0.500
       0.577 -0.806 -0.127  0.009  0.016
     occupation matrix ns (before diag.):
       0.609  0.005  0.005  0.000  0.011
       0.005  0.034 -0.000  0.009  0.000
       0.005 -0.000  0.034 -0.009  0.000
       0.000  0.009 -0.009  0.609 -0.000
       0.011  0.000  0.000 -0.000  0.034
     SPIN  2
     eigenvalues:
       0.986  0.986  0.997  0.997  0.997
     eigenvectors (columns):
      -0.508 -0.860 -0.046  0.008  0.000
       0.019 -0.033  0.522  0.627 -0.577
      -0.038  0.000  0.282 -0.765 -0.577
       0.860 -0.508 -0.008 -0.046  0.000
      -0.019 -0.033  0.804 -0.139  0.577
     occupation matrix ns (before diag.):
       0.986 -0.000 -0.000  0.000 -0.000
      -0.000  0.997  0.000 -0.000 -0.000
      -0.000  0.000  0.997  0.000 -0.000
       0.000 -0.000  0.000  0.986 -0.000
      -0.000 -0.000 -0.000 -0.000  0.997

     Number of occupied Hubbard levels =   12.5680

     negative rho (up, down):  2.294E-04 2.259E-04

     HUBBARD ENERGY =    0.2067  (Ry)

     total cpu time spent up to now is      246.1 secs

     total energy              =    -741.42100102 Ry
     estimated scf accuracy    <       0.00007305 Ry

     total magnetization       =    -0.00 Bohr mag/cell
     absolute magnetization    =     7.44 Bohr mag/cell

     iteration # 35     ecut=    70.00 Ry     beta= 0.10
     Davidson diagonalization with overlap

---- Real-time Memory Report at c_bands before calling an iterative solver
           212 MiB given to the printing process from OS
           128 MiB allocation reported by mallinfo(arena+hblkhd)
          7709 MiB available memory on the node where the printing process lives
------------------
     ethr =  8.87E-08,  avg # of iterations =  1.8

     =================== HUBBARD OCCUPATIONS ===================
     ------------------------ ATOM    1 ------------------------
     Tr[ns(  1)] (up, down, total) =   4.96236  1.32395  6.28631
     Atomic magnetic moment for atom   1 =   3.63842
     SPIN  1
     eigenvalues:
       0.986  0.986  0.997  0.997  0.997
     eigenvectors (columns):
       0.474 -0.879 -0.049  0.008  0.000
      -0.021 -0.034  0.515  0.632 -0.577
       0.040 -0.001  0.290 -0.762 -0.577
      -0.879 -0.474 -0.008 -0.049  0.000
       0.019 -0.036  0.805 -0.130  0.577
     occupation matrix ns (before diag.):
       0.986 -0.000 -0.000  0.000 -0.000
      -0.000  0.997  0.000 -0.000 -0.000
      -0.000  0.000  0.997  0.000 -0.000
       0.000 -0.000  0.000  0.986 -0.000
      -0.000 -0.000 -0.000 -0.000  0.997
     SPIN  2
     eigenvalues:
       0.033  0.034  0.034  0.612  0.612
     eigenvectors (columns):
      -0.000  0.036  0.004 -0.717  0.696
      -0.577 -0.476  0.663  0.007  0.029
      -0.577 -0.336 -0.744 -0.028 -0.008
      -0.000  0.004 -0.036  0.696  0.717
       0.577 -0.812 -0.081 -0.021  0.021
     occupation matrix ns (before diag.):
       0.611  0.009  0.009  0.000  0.017
       0.009  0.034 -0.000  0.015  0.000
       0.009 -0.000  0.034 -0.015  0.000
       0.000  0.015 -0.015  0.611 -0.000
       0.017  0.000  0.000 -0.000  0.034
     ------------------------ ATOM    2 ------------------------
     Tr[ns(  2)] (up, down, total) =   1.32232  4.96295  6.28528
     Atomic magnetic moment for atom   2 =  -3.64063
     SPIN  1
     eigenvalues:
       0.034  0.034  0.034  0.610  0.610
     eigenvectors (columns):
      -0.000  0.022  0.006  0.579  0.815
      -0.577 -0.593  0.561 -0.008  0.017
      -0.577 -0.190 -0.794  0.018 -0.002
      -0.000  0.006 -0.022 -0.815  0.579
       0.577 -0.782 -0.232  0.011  0.015
     occupation matrix ns (before diag.):
       0.610  0.005  0.005  0.000  0.011
       0.005  0.034 -0.000  0.009  0.000
       0.005 -0.000  0.034 -0.009  0.000
       0.000  0.009 -0.009  0.610 -0.000
       0.011  0.000  0.000 -0.000  0.034
     SPIN  2
     eigenvalues:
       0.986  0.986  0.997  0.997  0.997
     eigenvectors (columns):
      -0.593 -0.804 -0.046  0.008  0.000
       0.015 -0.035  0.524  0.625 -0.577
      -0.038  0.004  0.279 -0.766 -0.577
       0.804 -0.593 -0.008 -0.046  0.000
      -0.022 -0.030  0.803 -0.141  0.577
     occupation matrix ns (before diag.):
       0.986 -0.000 -0.000  0.000 -0.000
      -0.000  0.997  0.000 -0.000 -0.000
      -0.000  0.000  0.997  0.000 -0.000
       0.000 -0.000  0.000  0.986 -0.000
      -0.000 -0.000 -0.000 -0.000  0.997

     Number of occupied Hubbard levels =   12.5716

     negative rho (up, down):  2.312E-04 2.280E-04

     HUBBARD ENERGY =    0.2060  (Ry)

     total cpu time spent up to now is      252.5 secs

     total energy              =    -741.42102459 Ry
     estimated scf accuracy    <       0.00004066 Ry

     total magnetization       =    -0.00 Bohr mag/cell
     absolute magnetization    =     7.44 Bohr mag/cell

     iteration # 36     ecut=    70.00 Ry     beta= 0.10
     Davidson diagonalization with overlap

---- Real-time Memory Report at c_bands before calling an iterative solver
           212 MiB given to the printing process from OS
           128 MiB allocation reported by mallinfo(arena+hblkhd)
          7710 MiB available memory on the node where the printing process lives
------------------
     ethr =  8.87E-08,  avg # of iterations =  2.0

     =================== HUBBARD OCCUPATIONS ===================
     ------------------------ ATOM    1 ------------------------
     Tr[ns(  1)] (up, down, total) =   4.96255  1.32170  6.28425
     Atomic magnetic moment for atom   1 =   3.64085
     SPIN  1
     eigenvalues:
       0.986  0.986  0.997  0.997  0.997
     eigenvectors (columns):
       0.460 -0.886 -0.049  0.007  0.000
      -0.022 -0.034  0.500  0.644 -0.577
       0.041 -0.002  0.308 -0.755 -0.577
      -0.886 -0.460 -0.007 -0.049  0.000
       0.019 -0.036  0.808 -0.111  0.577
     occupation matrix ns (before diag.):
       0.986 -0.000 -0.000  0.000 -0.000
      -0.000  0.997  0.000 -0.000 -0.000
      -0.000  0.000  0.997  0.000 -0.000
       0.000 -0.000  0.000  0.986 -0.000
      -0.000 -0.000 -0.000 -0.000  0.997
     SPIN  2
     eigenvalues:
       0.033  0.034  0.034  0.611  0.611
     eigenvectors (columns):
      -0.000  0.037  0.003  0.681  0.731
      -0.577 -0.465  0.671 -0.009  0.029
      -0.577 -0.349 -0.738  0.029 -0.007
      -0.000  0.003 -0.037 -0.731  0.681
       0.577 -0.813 -0.067  0.020  0.022
     occupation matrix ns (before diag.):
       0.610  0.009  0.009  0.000  0.017
       0.009  0.034 -0.000  0.015  0.000
       0.009 -0.000  0.034 -0.015  0.000
       0.000  0.015 -0.015  0.610 -0.000
       0.017  0.000  0.000 -0.000  0.034
     ------------------------ ATOM    2 ------------------------
     Tr[ns(  2)] (up, down, total) =   1.31948  4.96309  6.28256
     Atomic magnetic moment for atom   2 =  -3.64361
     SPIN  1
     eigenvalues:
       0.034  0.034  0.034  0.609  0.609
     eigenvectors (columns):
      -0.000  0.023  0.003  0.383  0.924
      -0.577 -0.504  0.642 -0.012  0.015
      -0.577 -0.304 -0.758  0.019  0.002
      -0.000  0.003 -0.023 -0.924  0.383
       0.577 -0.808 -0.116  0.007  0.018
     occupation matrix ns (before diag.):
       0.609  0.005  0.005  0.000  0.011
       0.005  0.034 -0.000  0.009  0.000
       0.005 -0.000  0.034 -0.009  0.000
       0.000  0.009 -0.009  0.609 -0.000
       0.011  0.000  0.000 -0.000  0.034
     SPIN  2
     eigenvalues:
       0.986  0.986  0.997  0.997  0.997
     eigenvectors (columns):
      -0.584 -0.811 -0.046  0.005  0.000
       0.016 -0.035  0.481  0.658 -0.577
      -0.038  0.004  0.330 -0.746 -0.577
       0.811 -0.584 -0.005 -0.046  0.000
      -0.022 -0.031  0.811 -0.088  0.577
     occupation matrix ns (before diag.):
       0.986 -0.000 -0.000  0.000 -0.000
      -0.000  0.997  0.000 -0.000 -0.000
      -0.000  0.000  0.997  0.000 -0.000
       0.000 -0.000  0.000  0.986 -0.000
      -0.000 -0.000 -0.000 -0.000  0.997

     Number of occupied Hubbard levels =   12.5668

     negative rho (up, down):  2.295E-04 2.258E-04

     HUBBARD ENERGY =    0.2064  (Ry)

     total cpu time spent up to now is      259.5 secs

     total energy              =    -741.42099800 Ry
     estimated scf accuracy    <       0.00008658 Ry

     total magnetization       =    -0.00 Bohr mag/cell
     absolute magnetization    =     7.44 Bohr mag/cell

     iteration # 37     ecut=    70.00 Ry     beta= 0.10
     Davidson diagonalization with overlap

---- Real-time Memory Report at c_bands before calling an iterative solver
           212 MiB given to the printing process from OS
           128 MiB allocation reported by mallinfo(arena+hblkhd)
          7708 MiB available memory on the node where the printing process lives
------------------
     ethr =  8.87E-08,  avg # of iterations =  2.0

     =================== HUBBARD OCCUPATIONS ===================
     ------------------------ ATOM    1 ------------------------
     Tr[ns(  1)] (up, down, total) =   4.96238  1.32369  6.28607
     Atomic magnetic moment for atom   1 =   3.63868
     SPIN  1
     eigenvalues:
       0.986  0.986  0.997  0.997  0.997
     eigenvectors (columns):
      -0.627 -0.778 -0.048  0.009  0.000
       0.014 -0.037  0.536  0.615 -0.577
      -0.039  0.006  0.264 -0.772 -0.577
       0.778 -0.627 -0.009 -0.048  0.000
      -0.025 -0.031  0.800 -0.157  0.577
     occupation matrix ns (before diag.):
       0.986 -0.000 -0.000  0.000 -0.000
      -0.000  0.997  0.000 -0.000 -0.000
      -0.000  0.000  0.997  0.000 -0.000
       0.000 -0.000  0.000  0.986 -0.000
      -0.000 -0.000 -0.000 -0.000  0.997
     SPIN  2
     eigenvalues:
       0.033  0.034  0.034  0.611  0.611
     eigenvectors (columns):
      -0.000 -0.021 -0.027  0.548  0.836
      -0.577  0.809 -0.108 -0.013  0.025
      -0.577 -0.311  0.755  0.028 -0.002
      -0.000 -0.027  0.021 -0.836  0.548
       0.577  0.498  0.646  0.016  0.024
     occupation matrix ns (before diag.):
       0.611  0.008  0.008  0.000  0.016
       0.008  0.034 -0.000  0.014  0.000
       0.008 -0.000  0.034 -0.014  0.000
       0.000  0.014 -0.014  0.611 -0.000
       0.016  0.000  0.000 -0.000  0.034
     ------------------------ ATOM    2 ------------------------
     Tr[ns(  2)] (up, down, total) =   1.32153  4.96299  6.28452
     Atomic magnetic moment for atom   2 =  -3.64146
     SPIN  1
     eigenvalues:
       0.034  0.034  0.034  0.610  0.610
     eigenvectors (columns):
      -0.000 -0.021 -0.002  0.450  0.893
      -0.577  0.476 -0.663 -0.009  0.014
      -0.577  0.337  0.744  0.017  0.001
      -0.000 -0.002  0.021 -0.893  0.450
       0.577  0.812  0.080  0.008  0.015
     occupation matrix ns (before diag.):
       0.610  0.005  0.005  0.000  0.010
       0.005  0.034 -0.000  0.008  0.000
       0.005 -0.000  0.034 -0.008  0.000
       0.000  0.008 -0.008  0.610 -0.000
       0.010  0.000  0.000 -0.000  0.034
     SPIN  2
     eigenvalues:
       0.986  0.986  0.997  0.997  0.997
     eigenvectors (columns):
      -0.504 -0.863 -0.044  0.010  0.000
       0.018 -0.032  0.556  0.597 -0.577
      -0.037  0.000  0.239 -0.780 -0.577
       0.863 -0.504 -0.010 -0.044  0.000
      -0.019 -0.032  0.795 -0.182  0.577
     occupation matrix ns (before diag.):
       0.986 -0.000 -0.000  0.000 -0.000
      -0.000  0.997  0.000 -0.000 -0.000
      -0.000  0.000  0.997  0.000 -0.000
       0.000 -0.000  0.000  0.986 -0.000
      -0.000 -0.000 -0.000 -0.000  0.997

     Number of occupied Hubbard levels =   12.5706

     negative rho (up, down):  2.309E-04 2.278E-04

     HUBBARD ENERGY =    0.2059  (Ry)

     total cpu time spent up to now is      266.2 secs

     total energy              =    -741.42101227 Ry
     estimated scf accuracy    <       0.00004571 Ry

     total magnetization       =    -0.00 Bohr mag/cell
     absolute magnetization    =     7.44 Bohr mag/cell

     iteration # 38     ecut=    70.00 Ry     beta= 0.10
     Davidson diagonalization with overlap

---- Real-time Memory Report at c_bands before calling an iterative solver
           212 MiB given to the printing process from OS
           128 MiB allocation reported by mallinfo(arena+hblkhd)
          7708 MiB available memory on the node where the printing process lives
------------------
     ethr =  8.87E-08,  avg # of iterations =  1.0

     =================== HUBBARD OCCUPATIONS ===================
     ------------------------ ATOM    1 ------------------------
     Tr[ns(  1)] (up, down, total) =   4.96253  1.32284  6.28537
     Atomic magnetic moment for atom   1 =   3.63968
     SPIN  1
     eigenvalues:
       0.986  0.986  0.997  0.997  0.997
     eigenvectors (columns):
      -0.491 -0.870 -0.049 -0.007 -0.000
       0.021 -0.035  0.508 -0.638  0.577
      -0.041 -0.000  0.298  0.759  0.577
       0.870 -0.491 -0.007  0.049 -0.000
      -0.020 -0.035  0.806  0.122 -0.577
     occupation matrix ns (before diag.):
       0.986 -0.000 -0.000  0.000 -0.000
      -0.000  0.997  0.000 -0.000 -0.000
      -0.000  0.000  0.997  0.000 -0.000
       0.000 -0.000  0.000  0.986 -0.000
      -0.000 -0.000 -0.000 -0.000  0.997
     SPIN  2
     eigenvalues:
       0.033  0.034  0.034  0.611  0.611
     eigenvectors (columns):
      -0.000 -0.016 -0.034  0.685 -0.728
      -0.577  0.813  0.066 -0.009 -0.029
      -0.577 -0.464  0.671  0.030  0.007
      -0.000 -0.034  0.016 -0.728 -0.685
       0.577  0.349  0.737  0.021 -0.022
     occupation matrix ns (before diag.):
       0.610  0.009  0.009  0.000  0.018
       0.009  0.034 -0.000  0.015  0.000
       0.009 -0.000  0.034 -0.015  0.000
       0.000  0.015 -0.015  0.610 -0.000
       0.018  0.000  0.000 -0.000  0.034
     ------------------------ ATOM    2 ------------------------
     Tr[ns(  2)] (up, down, total) =   1.32022  4.96306  6.28328
     Atomic magnetic moment for atom   2 =  -3.64284
     SPIN  1
     eigenvalues:
       0.034  0.034  0.034  0.609  0.609
     eigenvectors (columns):
      -0.000 -0.003 -0.024  0.716  0.698
      -0.577  0.755  0.309 -0.005  0.019
      -0.577 -0.645  0.500  0.019 -0.005
      -0.000 -0.024  0.003 -0.698  0.716
       0.577  0.110  0.809  0.014  0.014
     occupation matrix ns (before diag.):
       0.609  0.006  0.006  0.000  0.011
       0.006  0.034 -0.000  0.010  0.000
       0.006 -0.000  0.034 -0.010  0.000
       0.000  0.010 -0.010  0.609 -0.000
       0.011  0.000  0.000 -0.000  0.034
     SPIN  2
     eigenvalues:
       0.986  0.986  0.997  0.997  0.997
     eigenvectors (columns):
      -0.630 -0.775 -0.046  0.009  0.000
       0.014 -0.036  0.536  0.615 -0.577
      -0.038  0.006  0.264 -0.772 -0.577
       0.775 -0.630 -0.009 -0.046  0.000
      -0.024 -0.030  0.800 -0.157  0.577
     occupation matrix ns (before diag.):
       0.986 -0.000 -0.000  0.000 -0.000
      -0.000  0.997  0.000 -0.000 -0.000
      -0.000  0.000  0.997  0.000 -0.000
       0.000 -0.000  0.000  0.986 -0.000
      -0.000 -0.000 -0.000 -0.000  0.997

     Number of occupied Hubbard levels =   12.5687

     negative rho (up, down):  2.298E-04 2.269E-04

     HUBBARD ENERGY =    0.2061  (Ry)

     total cpu time spent up to now is      272.6 secs

     total energy              =    -741.42098174 Ry
     estimated scf accuracy    <       0.00006169 Ry

     total magnetization       =    -0.00 Bohr mag/cell
     absolute magnetization    =     7.44 Bohr mag/cell

     iteration # 39     ecut=    70.00 Ry     beta= 0.10
     Davidson diagonalization with overlap

---- Real-time Memory Report at c_bands before calling an iterative solver
           212 MiB given to the printing process from OS
           128 MiB allocation reported by mallinfo(arena+hblkhd)
          7710 MiB available memory on the node where the printing process lives
------------------
     ethr =  8.87E-08,  avg # of iterations =  1.0

     =================== HUBBARD OCCUPATIONS ===================
     ------------------------ ATOM    1 ------------------------
     Tr[ns(  1)] (up, down, total) =   4.96242  1.32332  6.28574
     Atomic magnetic moment for atom   1 =   3.63911
     SPIN  1
     eigenvalues:
       0.986  0.986  0.997  0.997  0.997
     eigenvectors (columns):
      -0.833 -0.551 -0.050  0.008  0.000
       0.002 -0.041  0.516  0.631 -0.577
      -0.037  0.018  0.288 -0.763 -0.577
       0.551 -0.833 -0.008 -0.050  0.000
      -0.034 -0.023  0.805 -0.132  0.577
     occupation matrix ns (before diag.):
       0.986 -0.000 -0.000  0.000 -0.000
      -0.000  0.997  0.000 -0.000 -0.000
      -0.000  0.000  0.997  0.000 -0.000
       0.000 -0.000  0.000  0.986 -0.000
      -0.000 -0.000 -0.000 -0.000  0.997
     SPIN  2
     eigenvalues:
       0.033  0.034  0.034  0.611  0.611
     eigenvectors (columns):
      -0.000 -0.038 -0.005  0.548  0.836
      -0.577  0.495 -0.649 -0.014  0.028
      -0.577  0.314  0.753  0.031 -0.002
      -0.000 -0.005  0.038 -0.836  0.548
       0.577  0.809  0.104  0.017  0.026
     occupation matrix ns (before diag.):
       0.611  0.009  0.009  0.000  0.018
       0.009  0.034 -0.000  0.015  0.000
       0.009 -0.000  0.034 -0.015  0.000
       0.000  0.015 -0.015  0.611 -0.000
       0.018  0.000  0.000 -0.000  0.034
     ------------------------ ATOM    2 ------------------------
     Tr[ns(  2)] (up, down, total) =   1.32182  4.96292  6.28475
     Atomic magnetic moment for atom   2 =  -3.64110
     SPIN  1
     eigenvalues:
       0.034  0.034  0.034  0.610  0.610
     eigenvectors (columns):
      -0.000 -0.025 -0.001  0.652  0.758
      -0.577  0.443 -0.685 -0.007  0.019
      -0.577  0.372  0.727  0.020 -0.004
      -0.000 -0.001  0.025 -0.758  0.652
       0.577  0.815  0.041  0.013  0.015
     occupation matrix ns (before diag.):
       0.610  0.006  0.006  0.000  0.012
       0.006  0.034 -0.000  0.010  0.000
       0.006 -0.000  0.034 -0.010  0.000
       0.000  0.010 -0.010  0.610 -0.000
       0.012  0.000  0.000 -0.000  0.034
     SPIN  2
     eigenvalues:
       0.986  0.986  0.997  0.997  0.997
     eigenvectors (columns):
      -0.624 -0.780 -0.046  0.009  0.000
       0.014 -0.036  0.534  0.617 -0.577
      -0.038  0.006  0.267 -0.770 -0.577
       0.780 -0.624 -0.009 -0.046  0.000
      -0.024 -0.030  0.801 -0.154  0.577
     occupation matrix ns (before diag.):
       0.986 -0.000 -0.000  0.000 -0.000
      -0.000  0.997  0.000 -0.000 -0.000
      -0.000  0.000  0.997  0.000 -0.000
       0.000 -0.000  0.000  0.986 -0.000
      -0.000 -0.000 -0.000 -0.000  0.997

     Number of occupied Hubbard levels =   12.5705

     negative rho (up, down):  2.298E-04 2.266E-04

     HUBBARD ENERGY =    0.2063  (Ry)

     total cpu time spent up to now is      279.3 secs

     total energy              =    -741.42098492 Ry
     estimated scf accuracy    <       0.00004454 Ry

     total magnetization       =    -0.00 Bohr mag/cell
     absolute magnetization    =     7.44 Bohr mag/cell

     iteration # 40     ecut=    70.00 Ry     beta= 0.10
     Davidson diagonalization with overlap

---- Real-time Memory Report at c_bands before calling an iterative solver
           212 MiB given to the printing process from OS
           128 MiB allocation reported by mallinfo(arena+hblkhd)
          7710 MiB available memory on the node where the printing process lives
------------------
     ethr =  8.87E-08,  avg # of iterations =  1.0

     =================== HUBBARD OCCUPATIONS ===================
     ------------------------ ATOM    1 ------------------------
     Tr[ns(  1)] (up, down, total) =   4.96241  1.32336  6.28577
     Atomic magnetic moment for atom   1 =   3.63905
     SPIN  1
     eigenvalues:
       0.986  0.986  0.997  0.997  0.997
     eigenvectors (columns):
       0.411 -0.910 -0.049  0.009  0.000
      -0.024 -0.033  0.534  0.617 -0.577
       0.041 -0.004  0.267 -0.770 -0.577
      -0.910 -0.411 -0.009 -0.049  0.000
       0.017 -0.037  0.801 -0.154  0.577
     occupation matrix ns (before diag.):
       0.986 -0.000 -0.000  0.000 -0.000
      -0.000  0.997  0.000 -0.000 -0.000
      -0.000  0.000  0.997  0.000 -0.000
       0.000 -0.000  0.000  0.986 -0.000
      -0.000 -0.000 -0.000 -0.000  0.997
     SPIN  2
     eigenvalues:
       0.033  0.034  0.034  0.611  0.611
     eigenvectors (columns):
      -0.000 -0.037  0.009  0.743 -0.669
      -0.577  0.562  0.591 -0.006 -0.030
      -0.577  0.231 -0.783  0.029  0.009
      -0.000 -0.009 -0.037 -0.669 -0.743
       0.577  0.793 -0.192  0.023 -0.021
     occupation matrix ns (before diag.):
       0.611  0.009  0.009  0.000  0.018
       0.009  0.034 -0.000  0.015  0.000
       0.009 -0.000  0.034 -0.015  0.000
       0.000  0.015 -0.015  0.611 -0.000
       0.018  0.000  0.000 -0.000  0.034
     ------------------------ ATOM    2 ------------------------
     Tr[ns(  2)] (up, down, total) =   1.32171  4.96295  6.28466
     Atomic magnetic moment for atom   2 =  -3.64124
     SPIN  1
     eigenvalues:
       0.034  0.034  0.034  0.610  0.610
     eigenvectors (columns):
      -0.000 -0.004 -0.024  0.443  0.896
      -0.577  0.767  0.280 -0.011  0.017
      -0.577 -0.626  0.524  0.020  0.001
      -0.000 -0.024  0.004 -0.896  0.443
       0.577  0.141  0.804  0.009  0.018
     occupation matrix ns (before diag.):
       0.610  0.006  0.006  0.000  0.011
       0.006  0.034 -0.000  0.010  0.000
       0.006 -0.000  0.034 -0.010  0.000
       0.000  0.010 -0.010  0.610 -0.000
       0.011  0.000  0.000 -0.000  0.034
     SPIN  2
     eigenvalues:
       0.986  0.986  0.997  0.997  0.997
     eigenvectors (columns):
      -0.629 -0.776 -0.046  0.008  0.000
       0.014 -0.036  0.527  0.622 -0.577
      -0.038  0.006  0.275 -0.768 -0.577
       0.776 -0.629 -0.008 -0.046  0.000
      -0.024 -0.030  0.802 -0.146  0.577
     occupation matrix ns (before diag.):
       0.986 -0.000 -0.000  0.000 -0.000
      -0.000  0.997  0.000 -0.000 -0.000
      -0.000  0.000  0.997  0.000 -0.000
       0.000 -0.000  0.000  0.986 -0.000
      -0.000 -0.000 -0.000 -0.000  0.997

     Number of occupied Hubbard levels =   12.5704

     negative rho (up, down):  2.296E-04 2.258E-04

     HUBBARD ENERGY =    0.2063  (Ry)

     total cpu time spent up to now is      286.2 secs

     total energy              =    -741.42098129 Ry
     estimated scf accuracy    <       0.00004503 Ry

     total magnetization       =    -0.00 Bohr mag/cell
     absolute magnetization    =     7.44 Bohr mag/cell

     iteration # 41     ecut=    70.00 Ry     beta= 0.10
     Davidson diagonalization with overlap

---- Real-time Memory Report at c_bands before calling an iterative solver
           212 MiB given to the printing process from OS
           128 MiB allocation reported by mallinfo(arena+hblkhd)
          7709 MiB available memory on the node where the printing process lives
------------------
     ethr =  8.87E-08,  avg # of iterations =  1.0

     =================== HUBBARD OCCUPATIONS ===================
     ------------------------ ATOM    1 ------------------------
     Tr[ns(  1)] (up, down, total) =   4.96227  1.32412  6.28639
     Atomic magnetic moment for atom   1 =   3.63815
     SPIN  1
     eigenvalues:
       0.986  0.986  0.997  0.997  0.997
     eigenvectors (columns):
      -0.583 -0.811 -0.050 -0.008 -0.000
       0.017 -0.037  0.518 -0.629  0.577
      -0.041  0.004  0.286  0.764  0.577
       0.811 -0.583 -0.008  0.050 -0.000
      -0.024 -0.033  0.804  0.134 -0.577
     occupation matrix ns (before diag.):
       0.986 -0.000 -0.000  0.000 -0.000
      -0.000  0.997  0.000 -0.000 -0.000
      -0.000  0.000  0.997  0.000 -0.000
       0.000 -0.000  0.000  0.986 -0.000
      -0.000 -0.000 -0.000 -0.000  0.997
     SPIN  2
     eigenvalues:
       0.033  0.034  0.034  0.612  0.612
     eigenvectors (columns):
      -0.000  0.038  0.005  0.663  0.748
      -0.577 -0.492  0.651 -0.010  0.029
      -0.577 -0.318 -0.751  0.030 -0.006
      -0.000  0.005 -0.038 -0.748  0.663
       0.577 -0.810 -0.100  0.021  0.023
     occupation matrix ns (before diag.):
       0.611  0.009  0.009  0.000  0.018
       0.009  0.034 -0.000  0.016  0.000
       0.009 -0.000  0.034 -0.016  0.000
       0.000  0.016 -0.016  0.611 -0.000
       0.018  0.000  0.000 -0.000  0.034
     ------------------------ ATOM    2 ------------------------
     Tr[ns(  2)] (up, down, total) =   1.32320  4.96292  6.28612
     Atomic magnetic moment for atom   2 =  -3.63971
     SPIN  1
     eigenvalues:
       0.034  0.034  0.034  0.611  0.611
     eigenvectors (columns):
      -0.000  0.010  0.023  0.660  0.751
      -0.577 -0.810 -0.101 -0.006  0.019
      -0.577  0.492 -0.651  0.020 -0.004
      -0.000  0.023 -0.010 -0.751  0.660
       0.577 -0.317 -0.752  0.013  0.015
     occupation matrix ns (before diag.):
       0.610  0.006  0.006  0.000  0.012
       0.006  0.034 -0.000  0.010  0.000
       0.006 -0.000  0.034 -0.010  0.000
       0.000  0.010 -0.010  0.610 -0.000
       0.012  0.000  0.000 -0.000  0.034
     SPIN  2
     eigenvalues:
       0.986  0.986  0.997  0.997  0.997
     eigenvectors (columns):
      -0.563 -0.825 -0.046  0.010  0.000
       0.017 -0.035  0.542  0.609 -0.577
      -0.038  0.003  0.257 -0.774 -0.577
       0.825 -0.563 -0.010 -0.046  0.000
      -0.022 -0.032  0.799 -0.165  0.577
     occupation matrix ns (before diag.):
       0.986 -0.000 -0.000  0.000 -0.000
      -0.000  0.997  0.000 -0.000 -0.000
      -0.000  0.000  0.997  0.000 -0.000
       0.000 -0.000  0.000  0.986 -0.000
      -0.000 -0.000 -0.000 -0.000  0.997

     Number of occupied Hubbard levels =   12.5725

     negative rho (up, down):  2.291E-04 2.252E-04

     HUBBARD ENERGY =    0.2063  (Ry)

     total cpu time spent up to now is      292.6 secs

     total energy              =    -741.42096516 Ry
     estimated scf accuracy    <       0.00003947 Ry

     total magnetization       =    -0.00 Bohr mag/cell
     absolute magnetization    =     7.44 Bohr mag/cell

     iteration # 42     ecut=    70.00 Ry     beta= 0.10
     Davidson diagonalization with overlap

---- Real-time Memory Report at c_bands before calling an iterative solver
           212 MiB given to the printing process from OS
           128 MiB allocation reported by mallinfo(arena+hblkhd)
          7710 MiB available memory on the node where the printing process lives
------------------
     ethr =  8.87E-08,  avg # of iterations =  1.2

     =================== HUBBARD OCCUPATIONS ===================
     ------------------------ ATOM    1 ------------------------
     Tr[ns(  1)] (up, down, total) =   4.96221  1.32467  6.28688
     Atomic magnetic moment for atom   1 =   3.63754
     SPIN  1
     eigenvalues:
       0.986  0.986  0.997  0.997  0.997
     eigenvectors (columns):
      -0.619 -0.783 -0.050 -0.009 -0.000
       0.015 -0.038  0.525 -0.624  0.577
      -0.041  0.006  0.277  0.767  0.577
       0.783 -0.619 -0.009  0.050 -0.000
      -0.026 -0.032  0.803  0.143 -0.577
     occupation matrix ns (before diag.):
       0.986 -0.000 -0.000  0.000 -0.000
      -0.000  0.997  0.000 -0.000 -0.000
      -0.000  0.000  0.997  0.000 -0.000
       0.000 -0.000  0.000  0.986 -0.000
      -0.000 -0.000 -0.000 -0.000  0.997
     SPIN  2
     eigenvalues:
       0.033  0.034  0.034  0.612  0.612
     eigenvectors (columns):
      -0.000  0.038  0.005  0.571  0.820
      -0.577 -0.490  0.653 -0.013  0.028
      -0.577 -0.320 -0.750  0.031 -0.003
      -0.000  0.005 -0.038 -0.820  0.571
       0.577 -0.810 -0.098  0.018  0.026
     occupation matrix ns (before diag.):
       0.611  0.009  0.009  0.000  0.018
       0.009  0.034 -0.000  0.016  0.000
       0.009 -0.000  0.034 -0.016  0.000
       0.000  0.016 -0.016  0.611 -0.000
       0.018  0.000  0.000 -0.000  0.034
     ------------------------ ATOM    2 ------------------------
     Tr[ns(  2)] (up, down, total) =   1.32342  4.96287  6.28629
     Atomic magnetic moment for atom   2 =  -3.63945
     SPIN  1
     eigenvalues:
       0.034  0.034  0.034  0.611  0.611
     eigenvectors (columns):
      -0.000  0.025  0.001  0.654  0.756
      -0.577 -0.444  0.685 -0.007  0.019
      -0.577 -0.371 -0.727  0.020 -0.004
      -0.000  0.001 -0.025 -0.756  0.654
       0.577 -0.815 -0.042  0.013  0.016
     occupation matrix ns (before diag.):
       0.610  0.006  0.006  0.000  0.012
       0.006  0.034 -0.000  0.010  0.000
       0.006 -0.000  0.034 -0.010  0.000
       0.000  0.010 -0.010  0.610 -0.000
       0.012  0.000  0.000 -0.000  0.034
     SPIN  2
     eigenvalues:
       0.986  0.986  0.997  0.997  0.997
     eigenvectors (columns):
      -0.426 -0.904 -0.047  0.007  0.000
       0.022 -0.032  0.512  0.635 -0.577
      -0.038 -0.003  0.294 -0.761 -0.577
       0.904 -0.426 -0.007 -0.047  0.000
      -0.016 -0.035  0.806 -0.126  0.577
     occupation matrix ns (before diag.):
       0.986 -0.000 -0.000  0.000 -0.000
      -0.000  0.997  0.000 -0.000 -0.000
      -0.000  0.000  0.997  0.000 -0.000
       0.000 -0.000  0.000  0.986 -0.000
      -0.000 -0.000 -0.000 -0.000  0.997

     Number of occupied Hubbard levels =   12.5732

     negative rho (up, down):  2.292E-04 2.252E-04

     HUBBARD ENERGY =    0.2063  (Ry)

     total cpu time spent up to now is      298.9 secs

     total energy              =    -741.42097982 Ry
     estimated scf accuracy    <       0.00003853 Ry

     total magnetization       =    -0.00 Bohr mag/cell
     absolute magnetization    =     7.43 Bohr mag/cell

     iteration # 43     ecut=    70.00 Ry     beta= 0.10
     Davidson diagonalization with overlap

---- Real-time Memory Report at c_bands before calling an iterative solver
           212 MiB given to the printing process from OS
           128 MiB allocation reported by mallinfo(arena+hblkhd)
          7710 MiB available memory on the node where the printing process lives
------------------
     ethr =  8.76E-08,  avg # of iterations =  1.0

     =================== HUBBARD OCCUPATIONS ===================
     ------------------------ ATOM    1 ------------------------
     Tr[ns(  1)] (up, down, total) =   4.96219  1.32477  6.28696
     Atomic magnetic moment for atom   1 =   3.63743
     SPIN  1
     eigenvalues:
       0.986  0.986  0.997  0.997  0.997
     eigenvectors (columns):
       0.511 -0.858 -0.049  0.013  0.000
      -0.020 -0.036  0.576  0.578 -0.577
       0.041  0.001  0.212 -0.787 -0.577
      -0.858 -0.511 -0.013 -0.049  0.000
       0.021 -0.035  0.788 -0.210  0.577
     occupation matrix ns (before diag.):
       0.986 -0.000 -0.000  0.000 -0.000
      -0.000  0.997  0.000 -0.000 -0.000
      -0.000  0.000  0.997  0.000 -0.000
       0.000 -0.000  0.000  0.986 -0.000
      -0.000 -0.000 -0.000 -0.000  0.997
     SPIN  2
     eigenvalues:
       0.033  0.034  0.034  0.612  0.612
     eigenvectors (columns):
      -0.000  0.038  0.007  0.396  0.917
      -0.577 -0.531  0.620 -0.019  0.025
      -0.577 -0.271 -0.769  0.031  0.004
      -0.000  0.007 -0.038 -0.917  0.396
       0.577 -0.802 -0.150  0.012  0.029
     occupation matrix ns (before diag.):
       0.611  0.009  0.009  0.000  0.018
       0.009  0.034 -0.000  0.016  0.000
       0.009 -0.000  0.034 -0.016  0.000
       0.000  0.016 -0.016  0.611 -0.000
       0.018  0.000  0.000 -0.000  0.034
     ------------------------ ATOM    2 ------------------------
     Tr[ns(  2)] (up, down, total) =   1.32327  4.96288  6.28615
     Atomic magnetic moment for atom   2 =  -3.63961
     SPIN  1
     eigenvalues:
       0.034  0.034  0.034  0.611  0.611
     eigenvectors (columns):
       0.000 -0.025 -0.007  0.600 -0.799
       0.577  0.582 -0.572 -0.008 -0.019
       0.577  0.205  0.790  0.021  0.002
       0.000 -0.007  0.025 -0.799 -0.600
      -0.577  0.787  0.218  0.012 -0.017
     occupation matrix ns (before diag.):
       0.610  0.006  0.006  0.000  0.012
       0.006  0.034 -0.000  0.010  0.000
       0.006 -0.000  0.034 -0.010  0.000
       0.000  0.010 -0.010  0.610 -0.000
       0.012  0.000  0.000 -0.000  0.034
     SPIN  2
     eigenvalues:
       0.986  0.986  0.997  0.997  0.997
     eigenvectors (columns):
      -0.356 -0.933 -0.046  0.009  0.000
       0.024 -0.030  0.533  0.618 -0.577
      -0.038 -0.006  0.269 -0.770 -0.577
       0.933 -0.356 -0.009 -0.046  0.000
      -0.014 -0.036  0.801 -0.152  0.577
     occupation matrix ns (before diag.):
       0.986 -0.000 -0.000  0.000 -0.000
      -0.000  0.997  0.000 -0.000 -0.000
      -0.000  0.000  0.997  0.000 -0.000
       0.000 -0.000  0.000  0.986 -0.000
      -0.000 -0.000 -0.000 -0.000  0.997

     Number of occupied Hubbard levels =   12.5731

     negative rho (up, down):  2.297E-04 2.263E-04

     HUBBARD ENERGY =    0.2059  (Ry)

     total cpu time spent up to now is      304.9 secs

     total energy              =    -741.42098632 Ry
     estimated scf accuracy    <       0.00003873 Ry

     total magnetization       =    -0.00 Bohr mag/cell
     absolute magnetization    =     7.43 Bohr mag/cell

     iteration # 44     ecut=    70.00 Ry     beta= 0.10
     Davidson diagonalization with overlap

---- Real-time Memory Report at c_bands before calling an iterative solver
           212 MiB given to the printing process from OS
           128 MiB allocation reported by mallinfo(arena+hblkhd)
          7486 MiB available memory on the node where the printing process lives
------------------
     ethr =  8.76E-08,  avg # of iterations =  2.0

     =================== HUBBARD OCCUPATIONS ===================
     ------------------------ ATOM    1 ------------------------
     Tr[ns(  1)] (up, down, total) =   4.96243  1.32323  6.28567
     Atomic magnetic moment for atom   1 =   3.63920
     SPIN  1
     eigenvalues:
       0.986  0.986  0.997  0.997  0.997
     eigenvectors (columns):
       0.462 -0.885 -0.050  0.007  0.000
      -0.022 -0.035  0.507  0.638 -0.577
       0.041 -0.002  0.299 -0.759 -0.577
      -0.885 -0.462 -0.007 -0.050  0.000
       0.019 -0.036  0.807 -0.120  0.577
     occupation matrix ns (before diag.):
       0.986 -0.000 -0.000  0.000 -0.000
      -0.000  0.997  0.000 -0.000 -0.000
      -0.000  0.000  0.997  0.000 -0.000
       0.000 -0.000  0.000  0.986 -0.000
      -0.000 -0.000 -0.000 -0.000  0.997
     SPIN  2
     eigenvalues:
       0.033  0.034  0.034  0.611  0.611
     eigenvectors (columns):
      -0.000 -0.038 -0.002  0.845 -0.533
      -0.577  0.441 -0.686 -0.001 -0.031
      -0.577  0.374  0.725  0.028  0.015
      -0.000 -0.002  0.038 -0.533 -0.845
       0.577  0.815  0.039  0.026 -0.017
     occupation matrix ns (before diag.):
       0.611  0.009  0.009  0.000  0.018
       0.009  0.034 -0.000  0.016  0.000
       0.009 -0.000  0.034 -0.016  0.000
       0.000  0.016 -0.016  0.611 -0.000
       0.018  0.000  0.000 -0.000  0.034
     ------------------------ ATOM    2 ------------------------
     Tr[ns(  2)] (up, down, total) =   1.32100  4.96301  6.28401
     Atomic magnetic moment for atom   2 =  -3.64202
     SPIN  1
     eigenvalues:
       0.034  0.034  0.034  0.610  0.610
     eigenvectors (columns):
      -0.000 -0.024 -0.006  0.384  0.923
      -0.577  0.577 -0.577 -0.012  0.016
      -0.577  0.212  0.788  0.020  0.003
      -0.000 -0.006  0.024 -0.923  0.384
       0.577  0.789  0.211  0.008  0.019
     occupation matrix ns (before diag.):
       0.609  0.006  0.006  0.000  0.012
       0.006  0.034 -0.000  0.010  0.000
       0.006 -0.000  0.034 -0.010  0.000
       0.000  0.010 -0.010  0.609 -0.000
       0.012  0.000  0.000 -0.000  0.034
     SPIN  2
     eigenvalues:
       0.986  0.986  0.997  0.997  0.997
     eigenvectors (columns):
      -0.536 -0.843 -0.046  0.009  0.000
       0.018 -0.034  0.541  0.611 -0.577
      -0.038  0.002  0.258 -0.774 -0.577
       0.843 -0.536 -0.009 -0.046  0.000
      -0.021 -0.032  0.799 -0.163  0.577
     occupation matrix ns (before diag.):
       0.986 -0.000 -0.000  0.000 -0.000
      -0.000  0.997  0.000 -0.000 -0.000
      -0.000  0.000  0.997  0.000 -0.000
       0.000 -0.000  0.000  0.986 -0.000
      -0.000 -0.000 -0.000 -0.000  0.997

     Number of occupied Hubbard levels =   12.5697

     negative rho (up, down):  2.296E-04 2.266E-04

     HUBBARD ENERGY =    0.2063  (Ry)

     total cpu time spent up to now is      312.0 secs

     total energy              =    -741.42100170 Ry
     estimated scf accuracy    <       0.00005112 Ry

     total magnetization       =    -0.00 Bohr mag/cell
     absolute magnetization    =     7.44 Bohr mag/cell

     iteration # 45     ecut=    70.00 Ry     beta= 0.10
     Davidson diagonalization with overlap

---- Real-time Memory Report at c_bands before calling an iterative solver
           212 MiB given to the printing process from OS
           128 MiB allocation reported by mallinfo(arena+hblkhd)
          7712 MiB available memory on the node where the printing process lives
------------------
     ethr =  8.76E-08,  avg # of iterations =  1.0

     =================== HUBBARD OCCUPATIONS ===================
     ------------------------ ATOM    1 ------------------------
     Tr[ns(  1)] (up, down, total) =   4.96245  1.32342  6.28586
     Atomic magnetic moment for atom   1 =   3.63903
     SPIN  1
     eigenvalues:
       0.986  0.986  0.997  0.997  0.997
     eigenvectors (columns):
       0.610 -0.791 -0.050  0.008  0.000
      -0.016 -0.038  0.512  0.634 -0.577
       0.041  0.005  0.293 -0.761 -0.577
      -0.791 -0.610 -0.008 -0.050  0.000
       0.025 -0.033  0.806 -0.127  0.577
     occupation matrix ns (before diag.):
       0.986 -0.000 -0.000  0.000 -0.000
      -0.000  0.997  0.000 -0.000 -0.000
      -0.000  0.000  0.997  0.000 -0.000
       0.000 -0.000  0.000  0.986 -0.000
      -0.000 -0.000 -0.000 -0.000  0.997
     SPIN  2
     eigenvalues:
       0.033  0.034  0.034  0.611  0.611
     eigenvectors (columns):
      -0.000  0.038  0.004  0.639  0.768
      -0.577 -0.478  0.661 -0.011  0.029
      -0.577 -0.334 -0.744  0.031 -0.005
      -0.000  0.004 -0.038 -0.768  0.639
       0.577 -0.812 -0.083  0.020  0.024
     occupation matrix ns (before diag.):
       0.611  0.009  0.009  0.000  0.018
       0.009  0.034 -0.000  0.016  0.000
       0.009 -0.000  0.034 -0.016  0.000
       0.000  0.016 -0.016  0.611 -0.000
       0.018  0.000  0.000 -0.000  0.034
     ------------------------ ATOM    2 ------------------------
     Tr[ns(  2)] (up, down, total) =   1.32154  4.96297  6.28451
     Atomic magnetic moment for atom   2 =  -3.64143
     SPIN  1
     eigenvalues:
       0.034  0.034  0.034  0.610  0.610
     eigenvectors (columns):
      -0.000 -0.008 -0.024  0.496  0.868
      -0.577  0.797  0.177 -0.010  0.018
      -0.577 -0.551  0.602  0.021  0.000
      -0.000 -0.024  0.008 -0.868  0.496
       0.577  0.246  0.778  0.010  0.018
     occupation matrix ns (before diag.):
       0.610  0.006  0.006  0.000  0.012
       0.006  0.034 -0.000  0.010  0.000
       0.006 -0.000  0.034 -0.010  0.000
       0.000  0.010 -0.010  0.610 -0.000
       0.012  0.000  0.000 -0.000  0.034
     SPIN  2
     eigenvalues:
       0.986  0.986  0.997  0.997  0.997
     eigenvectors (columns):
      -0.498 -0.866 -0.047  0.006  0.000
       0.019 -0.033  0.499  0.645 -0.577
      -0.039 -0.000  0.309 -0.755 -0.577
       0.866 -0.498 -0.006 -0.047  0.000
      -0.019 -0.033  0.808 -0.110  0.577
     occupation matrix ns (before diag.):
       0.986 -0.000 -0.000  0.000 -0.000
      -0.000  0.997  0.000 -0.000 -0.000
      -0.000  0.000  0.997  0.000 -0.000
       0.000 -0.000  0.000  0.986 -0.000
      -0.000 -0.000 -0.000 -0.000  0.997

     Number of occupied Hubbard levels =   12.5704

     negative rho (up, down):  2.303E-04 2.267E-04

     HUBBARD ENERGY =    0.2060  (Ry)

     total cpu time spent up to now is      319.0 secs

     total energy              =    -741.42099287 Ry
     estimated scf accuracy    <       0.00004524 Ry

     total magnetization       =    -0.00 Bohr mag/cell
     absolute magnetization    =     7.44 Bohr mag/cell

     iteration # 46     ecut=    70.00 Ry     beta= 0.10
     Davidson diagonalization with overlap

---- Real-time Memory Report at c_bands before calling an iterative solver
           212 MiB given to the printing process from OS
           128 MiB allocation reported by mallinfo(arena+hblkhd)
          7712 MiB available memory on the node where the printing process lives
------------------
     ethr =  8.76E-08,  avg # of iterations =  1.7

     =================== HUBBARD OCCUPATIONS ===================
     ------------------------ ATOM    1 ------------------------
     Tr[ns(  1)] (up, down, total) =   4.96234  1.32366  6.28600
     Atomic magnetic moment for atom   1 =   3.63868
     SPIN  1
     eigenvalues:
       0.986  0.986  0.997  0.997  0.997
     eigenvectors (columns):
      -0.723 -0.689 -0.050  0.010  0.000
       0.010 -0.041  0.533  0.617 -0.577
      -0.040  0.012  0.268 -0.770 -0.577
       0.689 -0.723 -0.010 -0.050  0.000
      -0.030 -0.029  0.801 -0.153  0.577
     occupation matrix ns (before diag.):
       0.986 -0.000 -0.000  0.000 -0.000
      -0.000  0.997  0.000 -0.000 -0.000
      -0.000  0.000  0.997  0.000 -0.000
       0.000 -0.000  0.000  0.986 -0.000
      -0.000 -0.000 -0.000 -0.000  0.997
     SPIN  2
     eigenvalues:
       0.033  0.034  0.034  0.612  0.612
     eigenvectors (columns):
      -0.000  0.039  0.010  0.398  0.917
      -0.577 -0.565  0.588 -0.020  0.027
      -0.577 -0.227 -0.784  0.033  0.004
      -0.000  0.010 -0.039 -0.917  0.398
       0.577 -0.792 -0.195  0.013  0.030
     occupation matrix ns (before diag.):
       0.611  0.010  0.010  0.000  0.019
       0.010  0.034 -0.000  0.017  0.000
       0.010 -0.000  0.034 -0.017  0.000
       0.000  0.017 -0.017  0.611 -0.000
       0.019  0.000  0.000 -0.000  0.034
     ------------------------ ATOM    2 ------------------------
     Tr[ns(  2)] (up, down, total) =   1.32141  4.96295  6.28436
     Atomic magnetic moment for atom   2 =  -3.64153
     SPIN  1
     eigenvalues:
       0.034  0.034  0.034  0.610  0.610
     eigenvectors (columns):
      -0.000  0.026  0.009  0.698  0.715
      -0.577 -0.623  0.528 -0.006  0.022
      -0.577 -0.145 -0.803  0.022 -0.006
      -0.000  0.009 -0.026 -0.715  0.698
       0.577 -0.768 -0.276  0.016  0.016
     occupation matrix ns (before diag.):
       0.610  0.007  0.007  0.000  0.013
       0.007  0.034 -0.000  0.011  0.000
       0.007 -0.000  0.034 -0.011  0.000
       0.000  0.011 -0.011  0.610 -0.000
       0.013  0.000  0.000 -0.000  0.034
     SPIN  2
     eigenvalues:
       0.986  0.986  0.997  0.997  0.997
     eigenvectors (columns):
      -0.651 -0.758 -0.048  0.008  0.000
       0.013 -0.037  0.514  0.633 -0.577
      -0.039  0.007  0.291 -0.762 -0.577
       0.758 -0.651 -0.008 -0.048  0.000
      -0.026 -0.030  0.805 -0.129  0.577
     occupation matrix ns (before diag.):
       0.986 -0.000 -0.000  0.000 -0.000
      -0.000  0.997  0.000 -0.000 -0.000
      -0.000  0.000  0.997  0.000 -0.000
       0.000 -0.000  0.000  0.986 -0.000
      -0.000 -0.000 -0.000 -0.000  0.997

     Number of occupied Hubbard levels =   12.5704

     negative rho (up, down):  2.300E-04 2.270E-04

     HUBBARD ENERGY =    0.2060  (Ry)

     total cpu time spent up to now is      326.5 secs

     total energy              =    -741.42101301 Ry
     estimated scf accuracy    <       0.00005323 Ry

     total magnetization       =    -0.00 Bohr mag/cell
     absolute magnetization    =     7.44 Bohr mag/cell

     iteration # 47     ecut=    70.00 Ry     beta= 0.10
     Davidson diagonalization with overlap

---- Real-time Memory Report at c_bands before calling an iterative solver
           212 MiB given to the printing process from OS
           128 MiB allocation reported by mallinfo(arena+hblkhd)
          7714 MiB available memory on the node where the printing process lives
------------------
     ethr =  8.76E-08,  avg # of iterations =  1.4

     =================== HUBBARD OCCUPATIONS ===================
     ------------------------ ATOM    1 ------------------------
     Tr[ns(  1)] (up, down, total) =   4.96251  1.32301  6.28552
     Atomic magnetic moment for atom   1 =   3.63950
     SPIN  1
     eigenvalues:
       0.986  0.986  0.997  0.997  0.997
     eigenvectors (columns):
       0.597 -0.801 -0.049  0.009  0.000
      -0.016 -0.037  0.533  0.617 -0.577
       0.040  0.005  0.268 -0.770 -0.577
      -0.801 -0.597 -0.009 -0.049  0.000
       0.024 -0.032  0.801 -0.153  0.577
     occupation matrix ns (before diag.):
       0.986 -0.000 -0.000  0.000 -0.000
      -0.000  0.997  0.000 -0.000 -0.000
      -0.000  0.000  0.997  0.000 -0.000
       0.000 -0.000  0.000  0.986 -0.000
      -0.000 -0.000 -0.000 -0.000  0.997
     SPIN  2
     eigenvalues:
       0.033  0.034  0.034  0.611  0.611
     eigenvectors (columns):
      -0.000  0.037  0.003  0.705  0.708
      -0.577 -0.457  0.676 -0.008  0.029
      -0.577 -0.357 -0.734  0.029 -0.008
      -0.000  0.003 -0.037 -0.708  0.705
       0.577 -0.814 -0.058  0.021  0.021
     occupation matrix ns (before diag.):
       0.611  0.009  0.009  0.000  0.017
       0.009  0.034 -0.000  0.015  0.000
       0.009 -0.000  0.034 -0.015  0.000
       0.000  0.015 -0.015  0.611 -0.000
       0.017  0.000  0.000 -0.000  0.034
     ------------------------ ATOM    2 ------------------------
     Tr[ns(  2)] (up, down, total) =   1.32041  4.96302  6.28343
     Atomic magnetic moment for atom   2 =  -3.64260
     SPIN  1
     eigenvalues:
       0.034  0.034  0.034  0.609  0.609
     eigenvectors (columns):
      -0.000  0.023  0.005  0.627  0.779
      -0.577 -0.551  0.602 -0.007  0.018
      -0.577 -0.246 -0.778  0.019 -0.003
      -0.000  0.005 -0.023 -0.779  0.627
       0.577 -0.797 -0.176  0.012  0.015
     occupation matrix ns (before diag.):
       0.609  0.005  0.005  0.000  0.011
       0.005  0.034 -0.000  0.009  0.000
       0.005 -0.000  0.034 -0.009  0.000
       0.000  0.009 -0.009  0.609 -0.000
       0.011  0.000  0.000 -0.000  0.034
     SPIN  2
     eigenvalues:
       0.986  0.986  0.997  0.997  0.997
     eigenvectors (columns):
      -0.564 -0.825 -0.046  0.008  0.000
       0.016 -0.034  0.528  0.621 -0.577
      -0.038  0.003  0.274 -0.768 -0.577
       0.825 -0.564 -0.008 -0.046  0.000
      -0.021 -0.031  0.802 -0.147  0.577
     occupation matrix ns (before diag.):
       0.986 -0.000 -0.000  0.000 -0.000
      -0.000  0.997  0.000 -0.000 -0.000
      -0.000  0.000  0.997  0.000 -0.000
       0.000 -0.000  0.000  0.986 -0.000
      -0.000 -0.000 -0.000 -0.000  0.997

     Number of occupied Hubbard levels =   12.5689

     negative rho (up, down):  2.298E-04 2.267E-04

     HUBBARD ENERGY =    0.2059  (Ry)

     total cpu time spent up to now is      336.7 secs

     total energy              =    -741.42103225 Ry
     estimated scf accuracy    <       0.00006494 Ry

     total magnetization       =    -0.00 Bohr mag/cell
     absolute magnetization    =     7.44 Bohr mag/cell

     iteration # 48     ecut=    70.00 Ry     beta= 0.10
     Davidson diagonalization with overlap

---- Real-time Memory Report at c_bands before calling an iterative solver
           212 MiB given to the printing process from OS
           128 MiB allocation reported by mallinfo(arena+hblkhd)
          7555 MiB available memory on the node where the printing process lives
------------------
     ethr =  8.76E-08,  avg # of iterations =  1.7

     =================== HUBBARD OCCUPATIONS ===================
     ------------------------ ATOM    1 ------------------------
     Tr[ns(  1)] (up, down, total) =   4.96247  1.32373  6.28619
     Atomic magnetic moment for atom   1 =   3.63874
     SPIN  1
     eigenvalues:
       0.986  0.986  0.997  0.997  0.997
     eigenvectors (columns):
       0.668 -0.742 -0.047  0.012  0.000
      -0.012 -0.038  0.571  0.582 -0.577
       0.039  0.008  0.219 -0.786 -0.577
      -0.742 -0.668 -0.012 -0.047  0.000
       0.026 -0.029  0.790 -0.203  0.577
     occupation matrix ns (before diag.):
       0.986 -0.000 -0.000  0.000 -0.000
      -0.000  0.997  0.000 -0.000 -0.000
      -0.000  0.000  0.997  0.000 -0.000
       0.000 -0.000  0.000  0.986 -0.000
      -0.000 -0.000 -0.000 -0.000  0.997
     SPIN  2
     eigenvalues:
       0.033  0.034  0.034  0.612  0.612
     eigenvectors (columns):
      -0.000  0.023  0.025  0.543  0.839
      -0.577 -0.799  0.164 -0.013  0.025
      -0.577  0.257 -0.774  0.028 -0.001
      -0.000  0.025 -0.023 -0.839  0.543
       0.577 -0.542 -0.610  0.015  0.023
     occupation matrix ns (before diag.):
       0.611  0.008  0.008  0.000  0.016
       0.008  0.034 -0.000  0.014  0.000
       0.008 -0.000  0.034 -0.014  0.000
       0.000  0.014 -0.014  0.611 -0.000
       0.016  0.000  0.000 -0.000  0.034
     ------------------------ ATOM    2 ------------------------
     Tr[ns(  2)] (up, down, total) =   1.32089  4.96298  6.28388
     Atomic magnetic moment for atom   2 =  -3.64209
     SPIN  1
     eigenvalues:
       0.034  0.034  0.034  0.610  0.610
     eigenvectors (columns):
       0.000  0.006 -0.019  0.194 -0.981
       0.577 -0.801  0.158 -0.012 -0.011
       0.577  0.537  0.615  0.015 -0.005
       0.000  0.019  0.006 -0.981 -0.194
      -0.577 -0.264  0.772  0.003 -0.016
     occupation matrix ns (before diag.):
       0.609  0.005  0.005  0.000  0.009
       0.005  0.034 -0.000  0.008  0.000
       0.005 -0.000  0.034 -0.008  0.000
       0.000  0.008 -0.008  0.609 -0.000
       0.009  0.000  0.000 -0.000  0.034
     SPIN  2
     eigenvalues:
       0.986  0.986  0.997  0.997  0.997
     eigenvectors (columns):
      -0.576 -0.817 -0.045  0.007  0.000
       0.015 -0.034  0.514  0.633 -0.577
      -0.037  0.003  0.291 -0.762 -0.577
       0.817 -0.576 -0.007 -0.045  0.000
      -0.021 -0.030  0.805 -0.129  0.577
     occupation matrix ns (before diag.):
       0.986 -0.000 -0.000  0.000 -0.000
      -0.000  0.997  0.000 -0.000 -0.000
      -0.000  0.000  0.997  0.000 -0.000
       0.000 -0.000  0.000  0.986 -0.000
      -0.000 -0.000 -0.000 -0.000  0.997

     Number of occupied Hubbard levels =   12.5701

     negative rho (up, down):  2.288E-04 2.254E-04

     HUBBARD ENERGY =    0.2060  (Ry)

     total cpu time spent up to now is      346.2 secs

     total energy              =    -741.42100000 Ry
     estimated scf accuracy    <       0.00005360 Ry

     total magnetization       =    -0.01 Bohr mag/cell
     absolute magnetization    =     7.44 Bohr mag/cell

     iteration # 49     ecut=    70.00 Ry     beta= 0.10
     Davidson diagonalization with overlap

---- Real-time Memory Report at c_bands before calling an iterative solver
           212 MiB given to the printing process from OS
           128 MiB allocation reported by mallinfo(arena+hblkhd)
          7712 MiB available memory on the node where the printing process lives
------------------
     ethr =  8.76E-08,  avg # of iterations =  1.8

     =================== HUBBARD OCCUPATIONS ===================
     ------------------------ ATOM    1 ------------------------
     Tr[ns(  1)] (up, down, total) =   4.96245  1.32515  6.28760
     Atomic magnetic moment for atom   1 =   3.63731
     SPIN  1
     eigenvalues:
       0.986  0.986  0.997  0.997  0.997
     eigenvectors (columns):
       0.436 -0.899 -0.049  0.010  0.000
      -0.023 -0.034  0.540  0.611 -0.577
       0.041 -0.003  0.259 -0.773 -0.577
      -0.899 -0.436 -0.010 -0.049  0.000
       0.018 -0.037  0.799 -0.162  0.577
     occupation matrix ns (before diag.):
       0.986 -0.000 -0.000  0.000 -0.000
      -0.000  0.997  0.000 -0.000 -0.000
      -0.000  0.000  0.997  0.000 -0.000
       0.000 -0.000  0.000  0.986 -0.000
      -0.000 -0.000 -0.000 -0.000  0.997
     SPIN  2
     eigenvalues:
       0.033  0.034  0.034  0.612  0.612
     eigenvectors (columns):
      -0.000 -0.022  0.032 -0.562  0.826
      -0.577  0.813  0.070  0.014  0.029
      -0.577 -0.346 -0.739 -0.032 -0.002
      -0.000 -0.032 -0.022  0.826  0.562
       0.577  0.467 -0.669 -0.018  0.026
     occupation matrix ns (before diag.):
       0.612  0.009  0.009  0.000  0.018
       0.009  0.034 -0.000  0.016  0.000
       0.009 -0.000  0.034 -0.016  0.000
       0.000  0.016 -0.016  0.612 -0.000
       0.018  0.000  0.000 -0.000  0.034
     ------------------------ ATOM    2 ------------------------
     Tr[ns(  2)] (up, down, total) =   1.31893  4.96301  6.28194
     Atomic magnetic moment for atom   2 =  -3.64407
     SPIN  1
     eigenvalues:
       0.034  0.034  0.034  0.609  0.609
     eigenvectors (columns):
      -0.000  0.026  0.004  0.662  0.749
      -0.577 -0.519  0.630 -0.007  0.020
      -0.577 -0.286 -0.765  0.021 -0.004
      -0.000  0.004 -0.026 -0.749  0.662
       0.577 -0.805 -0.135  0.014  0.016
     occupation matrix ns (before diag.):
       0.608  0.006  0.006  0.000  0.012
       0.006  0.034 -0.000  0.011  0.000
       0.006 -0.000  0.034 -0.011  0.000
       0.000  0.011 -0.011  0.608 -0.000
       0.012  0.000  0.000 -0.000  0.034
     SPIN  2
     eigenvalues:
       0.986  0.986  0.997  0.997  0.997
     eigenvectors (columns):
      -0.499 -0.865 -0.046  0.010  0.000
       0.019 -0.034  0.553  0.600 -0.577
      -0.039  0.000  0.243 -0.779 -0.577
       0.865 -0.499 -0.010 -0.046  0.000
      -0.019 -0.034  0.796 -0.179  0.577
     occupation matrix ns (before diag.):
       0.986 -0.000 -0.000  0.000 -0.000
      -0.000  0.997  0.000 -0.000 -0.000
      -0.000  0.000  0.997  0.000 -0.000
       0.000 -0.000  0.000  0.986 -0.000
      -0.000 -0.000 -0.000 -0.000  0.997

     Number of occupied Hubbard levels =   12.5695

     negative rho (up, down):  2.285E-04 2.245E-04

     HUBBARD ENERGY =    0.2061  (Ry)

     total cpu time spent up to now is      352.7 secs

     total energy              =    -741.42092325 Ry
     estimated scf accuracy    <       0.00006326 Ry

     total magnetization       =    -0.01 Bohr mag/cell
     absolute magnetization    =     7.44 Bohr mag/cell

     iteration # 50     ecut=    70.00 Ry     beta= 0.10
     Davidson diagonalization with overlap

---- Real-time Memory Report at c_bands before calling an iterative solver
           212 MiB given to the printing process from OS
           128 MiB allocation reported by mallinfo(arena+hblkhd)
          7712 MiB available memory on the node where the printing process lives
------------------
     ethr =  8.76E-08,  avg # of iterations =  3.5

     =================== HUBBARD OCCUPATIONS ===================
     ------------------------ ATOM    1 ------------------------
     Tr[ns(  1)] (up, down, total) =   4.96236  1.32321  6.28558
     Atomic magnetic moment for atom   1 =   3.63915
     SPIN  1
     eigenvalues:
       0.986  0.986  0.997  0.997  0.997
     eigenvectors (columns):
       0.366  0.929 -0.054  0.011  0.000
      -0.028  0.035  0.537  0.613 -0.577
       0.045  0.007  0.262 -0.772 -0.577
      -0.929  0.366 -0.011 -0.054  0.000
       0.017  0.042  0.800 -0.159  0.577
     occupation matrix ns (before diag.):
       0.986 -0.000 -0.000  0.000 -0.000
      -0.000  0.997  0.000 -0.000 -0.000
      -0.000  0.000  0.997  0.000 -0.000
       0.000 -0.000  0.000  0.986 -0.000
      -0.000 -0.000 -0.000 -0.000  0.997
     SPIN  2
     eigenvalues:
       0.033  0.033  0.033  0.612  0.612
     eigenvectors (columns):
      -0.000  0.017  0.046  0.325  0.944
      -0.577 -0.805 -0.131 -0.026  0.030
      -0.577  0.516 -0.632  0.039  0.008
      -0.000  0.046 -0.017 -0.944  0.325
       0.577 -0.289 -0.763  0.013  0.038
     occupation matrix ns (before diag.):
       0.610  0.012  0.012  0.000  0.023
       0.012  0.034 -0.001  0.020  0.001
       0.012 -0.001  0.034 -0.020  0.001
       0.000  0.020 -0.020  0.610 -0.000
       0.023  0.001  0.001 -0.000  0.034
     ------------------------ ATOM    2 ------------------------
     Tr[ns(  2)] (up, down, total) =   1.32046  4.96303  6.28349
     Atomic magnetic moment for atom   2 =  -3.64257
     SPIN  1
     eigenvalues:
       0.033  0.034  0.034  0.610  0.610
     eigenvectors (columns):
      -0.000 -0.037  0.011 -0.657  0.753
      -0.577  0.589  0.565  0.010  0.030
      -0.577  0.195 -0.792 -0.031 -0.006
      -0.000 -0.011 -0.037  0.753  0.657
       0.577  0.784 -0.227 -0.021  0.024
     occupation matrix ns (before diag.):
       0.609  0.009  0.009  0.000  0.018
       0.009  0.034 -0.000  0.016  0.000
       0.009 -0.000  0.034 -0.016  0.000
       0.000  0.016 -0.016  0.609 -0.000
       0.018  0.000  0.000 -0.000  0.034
     SPIN  2
     eigenvalues:
       0.986  0.986  0.997  0.997  0.997
     eigenvectors (columns):
       0.558 -0.828 -0.052  0.008  0.000
      -0.019 -0.038  0.517  0.631 -0.577
       0.043  0.003  0.288 -0.763 -0.577
      -0.828 -0.558 -0.008 -0.052  0.000
       0.024 -0.035  0.805 -0.132  0.577
     occupation matrix ns (before diag.):
       0.986 -0.000 -0.000  0.000 -0.000
      -0.000  0.997  0.000 -0.000 -0.000
      -0.000  0.000  0.997  0.000 -0.000
       0.000 -0.000  0.000  0.986 -0.000
      -0.000 -0.000 -0.000 -0.000  0.997

     Number of occupied Hubbard levels =   12.5691

     negative rho (up, down):  2.284E-04 2.242E-04

     HUBBARD ENERGY =    0.2062  (Ry)

     total cpu time spent up to now is      359.9 secs

     total energy              =    -741.42094697 Ry
     estimated scf accuracy    <       0.00007616 Ry

     total magnetization       =    -0.01 Bohr mag/cell
     absolute magnetization    =     7.44 Bohr mag/cell

     iteration # 51     ecut=    70.00 Ry     beta= 0.10
     Davidson diagonalization with overlap

---- Real-time Memory Report at c_bands before calling an iterative solver
           212 MiB given to the printing process from OS
           128 MiB allocation reported by mallinfo(arena+hblkhd)
          7713 MiB available memory on the node where the printing process lives
------------------
     ethr =  8.76E-08,  avg # of iterations =  1.0

     =================== HUBBARD OCCUPATIONS ===================
     ------------------------ ATOM    1 ------------------------
     Tr[ns(  1)] (up, down, total) =   4.96234  1.32329  6.28563
     Atomic magnetic moment for atom   1 =   3.63905
     SPIN  1
     eigenvalues:
       0.986  0.986  0.997  0.997  0.997
     eigenvectors (columns):
       0.467 -0.883 -0.054  0.012  0.000
      -0.024 -0.038  0.549  0.603 -0.577
       0.045 -0.002  0.248 -0.777 -0.577
      -0.883 -0.467 -0.012 -0.054  0.000
       0.021 -0.040  0.796 -0.174  0.577
     occupation matrix ns (before diag.):
       0.986 -0.000 -0.000  0.000 -0.000
      -0.000  0.997  0.000 -0.000 -0.000
      -0.000  0.000  0.997  0.000 -0.000
       0.000 -0.000  0.000  0.986 -0.000
      -0.000 -0.000 -0.000 -0.000  0.997
     SPIN  2
     eigenvalues:
       0.033  0.033  0.033  0.612  0.612
     eigenvectors (columns):
       0.000 -0.022 -0.045  0.461 -0.886
       0.577  0.813  0.060 -0.022 -0.034
       0.577 -0.459  0.674  0.041 -0.002
       0.000 -0.045  0.022 -0.886 -0.461
      -0.577  0.355  0.734  0.019 -0.036
     occupation matrix ns (before diag.):
       0.610  0.012  0.012  0.000  0.024
       0.012  0.034 -0.001  0.020  0.001
       0.012 -0.001  0.034 -0.020  0.001
       0.000  0.020 -0.020  0.610 -0.000
       0.024  0.001  0.001 -0.000  0.034
     ------------------------ ATOM    2 ------------------------
     Tr[ns(  2)] (up, down, total) =   1.32073  4.96304  6.28377
     Atomic magnetic moment for atom   2 =  -3.64231
     SPIN  1
     eigenvalues:
       0.033  0.034  0.034  0.610  0.610
     eigenvectors (columns):
      -0.000  0.037  0.016  0.655  0.754
      -0.577 -0.653  0.489 -0.011  0.031
      -0.577 -0.097 -0.810  0.032 -0.006
      -0.000  0.016 -0.037 -0.754  0.655
       0.577 -0.750 -0.321  0.021  0.025
     occupation matrix ns (before diag.):
       0.609  0.009  0.009  0.000  0.019
       0.009  0.034 -0.000  0.016  0.000
       0.009 -0.000  0.034 -0.016  0.000
       0.000  0.016 -0.016  0.609 -0.000
       0.019  0.000  0.000 -0.000  0.034
     SPIN  2
     eigenvalues:
       0.986  0.986  0.997  0.997  0.997
     eigenvectors (columns):
      -0.539 -0.841 -0.052  0.010  0.000
       0.020 -0.038  0.539  0.612 -0.577
      -0.043  0.002  0.261 -0.773 -0.577
       0.841 -0.539 -0.010 -0.052  0.000
      -0.023 -0.036  0.799 -0.160  0.577
     occupation matrix ns (before diag.):
       0.986 -0.000 -0.000  0.000 -0.000
      -0.000  0.997  0.000 -0.000 -0.000
      -0.000  0.000  0.997  0.000 -0.000
       0.000 -0.000  0.000  0.986 -0.000
      -0.000 -0.000 -0.000 -0.000  0.997

     Number of occupied Hubbard levels =   12.5694

     negative rho (up, down):  2.278E-04 2.229E-04

     HUBBARD ENERGY =    0.2065  (Ry)

     total cpu time spent up to now is      366.1 secs

     total energy              =    -741.42091932 Ry
     estimated scf accuracy    <       0.00007422 Ry

     total magnetization       =    -0.00 Bohr mag/cell
     absolute magnetization    =     7.44 Bohr mag/cell

     iteration # 52     ecut=    70.00 Ry     beta= 0.10
     Davidson diagonalization with overlap

---- Real-time Memory Report at c_bands before calling an iterative solver
           212 MiB given to the printing process from OS
           128 MiB allocation reported by mallinfo(arena+hblkhd)
          7713 MiB available memory on the node where the printing process lives
------------------
     ethr =  8.76E-08,  avg # of iterations =  2.2

     =================== HUBBARD OCCUPATIONS ===================
     ------------------------ ATOM    1 ------------------------
     Tr[ns(  1)] (up, down, total) =   4.96210  1.32481  6.28690
     Atomic magnetic moment for atom   1 =   3.63729
     SPIN  1
     eigenvalues:
       0.986  0.986  0.997  0.997  0.997
     eigenvectors (columns):
       0.537 -0.842 -0.055  0.012  0.000
      -0.021 -0.041  0.548  0.604 -0.577
       0.046  0.002  0.249 -0.776 -0.577
      -0.842 -0.537 -0.012 -0.055  0.000
       0.025 -0.039  0.797 -0.172  0.577
     occupation matrix ns (before diag.):
       0.986 -0.000 -0.000  0.000 -0.001
      -0.000  0.997  0.000 -0.000 -0.000
      -0.000  0.000  0.997  0.000 -0.000
       0.000 -0.000  0.000  0.986 -0.000
      -0.001 -0.000 -0.000 -0.000  0.997
     SPIN  2
     eigenvalues:
       0.033  0.034  0.034  0.612  0.612
     eigenvectors (columns):
       0.000  0.008 -0.050 -0.187 -0.981
       0.577 -0.762  0.292  0.031 -0.027
       0.577  0.633  0.514 -0.039 -0.014
       0.000  0.050  0.008  0.981 -0.187
      -0.577 -0.128  0.805 -0.008 -0.041
     occupation matrix ns (before diag.):
       0.611  0.012  0.012  0.000  0.024
       0.012  0.034 -0.001  0.021  0.001
       0.012 -0.001  0.034 -0.021  0.001
       0.000  0.021 -0.021  0.611 -0.000
       0.024  0.001  0.001 -0.000  0.034
     ------------------------ ATOM    2 ------------------------
     Tr[ns(  2)] (up, down, total) =   1.32329  4.96290  6.28619
     Atomic magnetic moment for atom   2 =  -3.63962
     SPIN  1
     eigenvalues:
       0.034  0.034  0.034  0.611  0.611
     eigenvectors (columns):
      -0.000  0.041  0.005 -0.696 -0.717
      -0.577 -0.497  0.647  0.009 -0.032
      -0.577 -0.311 -0.754 -0.032  0.008
      -0.000  0.005 -0.041  0.717 -0.696
       0.577 -0.809 -0.108 -0.023 -0.024
     occupation matrix ns (before diag.):
       0.610  0.010  0.010  0.000  0.019
       0.010  0.034 -0.000  0.017  0.000
       0.010 -0.000  0.034 -0.017  0.000
       0.000  0.017 -0.017  0.610 -0.000
       0.019  0.000  0.000 -0.000  0.034
     SPIN  2
     eigenvalues:
       0.986  0.986  0.997  0.997  0.997
     eigenvectors (columns):
      -0.591 -0.805 -0.053 -0.006 -0.000
       0.017 -0.040  0.487 -0.654  0.577
      -0.043  0.005  0.323  0.749  0.577
       0.805 -0.591 -0.006  0.053 -0.000
      -0.026 -0.035  0.810  0.095 -0.577
     occupation matrix ns (before diag.):
       0.986 -0.000 -0.000  0.000 -0.000
      -0.000  0.997  0.000 -0.000 -0.000
      -0.000  0.000  0.997  0.000 -0.000
       0.000 -0.000  0.000  0.986 -0.000
      -0.000 -0.000 -0.000 -0.000  0.997

     Number of occupied Hubbard levels =   12.5731

     negative rho (up, down):  2.289E-04 2.243E-04

     HUBBARD ENERGY =    0.2055  (Ry)

     total cpu time spent up to now is      373.1 secs

     total energy              =    -741.42086069 Ry
     estimated scf accuracy    <       0.00004133 Ry

     total magnetization       =    -0.00 Bohr mag/cell
     absolute magnetization    =     7.43 Bohr mag/cell

     iteration # 53     ecut=    70.00 Ry     beta= 0.10
     Davidson diagonalization with overlap

---- Real-time Memory Report at c_bands before calling an iterative solver
           212 MiB given to the printing process from OS
           128 MiB allocation reported by mallinfo(arena+hblkhd)
          7714 MiB available memory on the node where the printing process lives
------------------
     ethr =  8.76E-08,  avg # of iterations =  3.3

     =================== HUBBARD OCCUPATIONS ===================
     ------------------------ ATOM    1 ------------------------
     Tr[ns(  1)] (up, down, total) =   4.96231  1.32216  6.28447
     Atomic magnetic moment for atom   1 =   3.64015
     SPIN  1
     eigenvalues:
       0.986  0.986  0.997  0.997  0.997
     eigenvectors (columns):
       0.459 -0.887 -0.059  0.010  0.000
      -0.026 -0.041  0.522  0.626 -0.577
       0.048 -0.002  0.282 -0.765 -0.577
      -0.887 -0.459 -0.010 -0.059  0.000
       0.022 -0.043  0.803 -0.139  0.577
     occupation matrix ns (before diag.):
       0.986 -0.000 -0.000  0.000 -0.001
      -0.000  0.997  0.000 -0.000 -0.000
      -0.000  0.000  0.997  0.000 -0.000
       0.000 -0.000  0.000  0.986 -0.000
      -0.001 -0.000 -0.000 -0.000  0.997
     SPIN  2
     eigenvalues:
       0.033  0.033  0.033  0.611  0.611
     eigenvectors (columns):
      -0.000 -0.058 -0.004  0.570  0.820
      -0.577  0.456 -0.676 -0.020  0.043
      -0.577  0.357  0.733  0.047 -0.004
      -0.000 -0.004  0.058 -0.820  0.570
       0.577  0.813  0.057  0.027  0.039
     occupation matrix ns (before diag.):
       0.609  0.014  0.014  0.000  0.027
       0.014  0.035 -0.001  0.024  0.001
       0.014 -0.001  0.035 -0.024  0.001
       0.000  0.024 -0.024  0.609 -0.000
       0.027  0.001  0.001 -0.000  0.035
     ------------------------ ATOM    2 ------------------------
     Tr[ns(  2)] (up, down, total) =   1.32135  4.96301  6.28437
     Atomic magnetic moment for atom   2 =  -3.64166
     SPIN  1
     eigenvalues:
       0.033  0.034  0.034  0.610  0.610
     eigenvectors (columns):
      -0.000 -0.050  0.005  0.806  0.589
      -0.577  0.476  0.662 -0.004  0.041
      -0.577  0.336 -0.743  0.038 -0.017
      -0.000 -0.005 -0.050 -0.589  0.806
       0.577  0.811 -0.081  0.033  0.024
     occupation matrix ns (before diag.):
       0.609  0.012  0.012  0.000  0.024
       0.012  0.034 -0.001  0.021  0.001
       0.012 -0.001  0.034 -0.021  0.001
       0.000  0.021 -0.021  0.609 -0.000
       0.024  0.001  0.001 -0.000  0.034
     SPIN  2
     eigenvalues:
       0.986  0.986  0.997  0.997  0.997
     eigenvectors (columns):
       0.433 -0.900 -0.056  0.010  0.000
      -0.026 -0.038  0.527  0.622 -0.577
       0.046 -0.003  0.275 -0.767 -0.577
      -0.900 -0.433 -0.010 -0.056  0.000
       0.020 -0.042  0.802 -0.145  0.577
     occupation matrix ns (before diag.):
       0.986 -0.000 -0.000  0.000 -0.000
      -0.000  0.997  0.000 -0.000 -0.000
      -0.000  0.000  0.997  0.000 -0.000
       0.000 -0.000  0.000  0.986 -0.000
      -0.000 -0.000 -0.000 -0.000  0.997

     Number of occupied Hubbard levels =   12.5688

     negative rho (up, down):  2.276E-04 2.241E-04

     HUBBARD ENERGY =    0.2065  (Ry)

     total cpu time spent up to now is      380.3 secs

     total energy              =    -741.42090398 Ry
     estimated scf accuracy    <       0.00008056 Ry

     total magnetization       =    -0.00 Bohr mag/cell
     absolute magnetization    =     7.44 Bohr mag/cell

     iteration # 54     ecut=    70.00 Ry     beta= 0.10
     Davidson diagonalization with overlap

---- Real-time Memory Report at c_bands before calling an iterative solver
           212 MiB given to the printing process from OS
           128 MiB allocation reported by mallinfo(arena+hblkhd)
          7713 MiB available memory on the node where the printing process lives
------------------
     ethr =  8.76E-08,  avg # of iterations =  1.3

     =================== HUBBARD OCCUPATIONS ===================
     ------------------------ ATOM    1 ------------------------
     Tr[ns(  1)] (up, down, total) =   4.96236  1.32271  6.28507
     Atomic magnetic moment for atom   1 =   3.63965
     SPIN  1
     eigenvalues:
       0.986  0.986  0.997  0.997  0.997
     eigenvectors (columns):
       0.645 -0.762 -0.059  0.006  0.000
      -0.016 -0.045  0.481  0.658 -0.577
       0.047  0.009  0.329 -0.746 -0.577
      -0.762 -0.645 -0.006 -0.059  0.000
       0.031 -0.037  0.810 -0.088  0.577
     occupation matrix ns (before diag.):
       0.986 -0.000 -0.000  0.000 -0.001
      -0.000  0.997  0.000 -0.000 -0.000
      -0.000  0.000  0.997  0.000 -0.000
       0.000 -0.000  0.000  0.986 -0.000
      -0.001 -0.000 -0.000 -0.000  0.997
     SPIN  2
     eigenvalues:
       0.033  0.034  0.034  0.611  0.611
     eigenvectors (columns):
      -0.000  0.010 -0.056 -0.615  0.787
      -0.577 -0.767  0.275  0.017  0.043
      -0.577  0.622  0.527 -0.046 -0.006
      -0.000  0.056  0.010  0.787  0.615
       0.577 -0.146  0.802 -0.028  0.036
     occupation matrix ns (before diag.):
       0.609  0.013  0.013  0.000  0.027
       0.013  0.035 -0.001  0.023  0.001
       0.013 -0.001  0.035 -0.023  0.001
       0.000  0.023 -0.023  0.609 -0.000
       0.027  0.001  0.001 -0.000  0.035
     ------------------------ ATOM    2 ------------------------
     Tr[ns(  2)] (up, down, total) =   1.32249  4.96290  6.28539
     Atomic magnetic moment for atom   2 =  -3.64041
     SPIN  1
     eigenvalues:
       0.033  0.034  0.034  0.611  0.611
     eigenvectors (columns):
       0.000  0.048  0.005  0.453 -0.890
       0.577 -0.473  0.664 -0.022 -0.033
       0.577 -0.339 -0.742  0.040 -0.002
       0.000  0.005 -0.048 -0.890 -0.453
      -0.577 -0.812 -0.078  0.018 -0.035
     occupation matrix ns (before diag.):
       0.609  0.011  0.011  0.000  0.023
       0.011  0.035 -0.001  0.020  0.001
       0.011 -0.001  0.035 -0.020  0.001
       0.000  0.020 -0.020  0.609 -0.000
       0.023  0.001  0.001 -0.000  0.035
     SPIN  2
     eigenvalues:
       0.986  0.986  0.997  0.997  0.997
     eigenvectors (columns):
       0.555 -0.830 -0.056  0.008  0.000
      -0.020 -0.041  0.502  0.642 -0.577
       0.046  0.003  0.305 -0.756 -0.577
      -0.830 -0.555 -0.008 -0.056  0.000
       0.026 -0.038  0.807 -0.114  0.577
     occupation matrix ns (before diag.):
       0.986 -0.000 -0.000  0.000 -0.000
      -0.000  0.997  0.000 -0.000 -0.000
      -0.000  0.000  0.997  0.000 -0.000
       0.000 -0.000  0.000  0.986 -0.000
      -0.000 -0.000 -0.000 -0.000  0.997

     Number of occupied Hubbard levels =   12.5705

     negative rho (up, down):  2.289E-04 2.241E-04

     HUBBARD ENERGY =    0.2056  (Ry)

     total cpu time spent up to now is      386.5 secs

     total energy              =    -741.42088265 Ry
     estimated scf accuracy    <       0.00004758 Ry

     total magnetization       =    -0.00 Bohr mag/cell
     absolute magnetization    =     7.44 Bohr mag/cell

     iteration # 55     ecut=    70.00 Ry     beta= 0.10
     Davidson diagonalization with overlap

---- Real-time Memory Report at c_bands before calling an iterative solver
           212 MiB given to the printing process from OS
           128 MiB allocation reported by mallinfo(arena+hblkhd)
          7656 MiB available memory on the node where the printing process lives
------------------
     ethr =  8.76E-08,  avg # of iterations =  2.5

     =================== HUBBARD OCCUPATIONS ===================
     ------------------------ ATOM    1 ------------------------
     Tr[ns(  1)] (up, down, total) =   4.96232  1.32208  6.28441
     Atomic magnetic moment for atom   1 =   3.64024
     SPIN  1
     eigenvalues:
       0.986  0.986  0.997  0.997  0.997
     eigenvectors (columns):
       0.519 -0.853 -0.060  0.013  0.000
      -0.024 -0.044  0.551  0.601 -0.577
       0.050  0.001  0.245 -0.777 -0.577
      -0.853 -0.519 -0.013 -0.060  0.000
       0.026 -0.043  0.796 -0.177  0.577
     occupation matrix ns (before diag.):
       0.986 -0.000 -0.000  0.000 -0.001
      -0.000  0.997  0.000 -0.000 -0.000
      -0.000  0.000  0.997  0.000 -0.000
       0.000 -0.000  0.000  0.986 -0.000
      -0.001 -0.000 -0.000 -0.000  0.997
     SPIN  2
     eigenvalues:
       0.033  0.033  0.033  0.611  0.611
     eigenvectors (columns):
      -0.000 -0.063 -0.003  0.566  0.822
      -0.577  0.438 -0.687 -0.022  0.046
      -0.577  0.376  0.723  0.051 -0.004
      -0.000 -0.003  0.063 -0.822  0.566
       0.577  0.814  0.036  0.029  0.042
     occupation matrix ns (before diag.):
       0.609  0.015  0.015  0.000  0.030
       0.015  0.035 -0.001  0.026  0.001
       0.015 -0.001  0.035 -0.026  0.001
       0.000  0.026 -0.026  0.609 -0.000
       0.030  0.001  0.001 -0.000  0.035
     ------------------------ ATOM    2 ------------------------
     Tr[ns(  2)] (up, down, total) =   1.32168  4.96304  6.28472
     Atomic magnetic moment for atom   2 =  -3.64135
     SPIN  1
     eigenvalues:
       0.033  0.034  0.034  0.611  0.611
     eigenvectors (columns):
      -0.000  0.009 -0.055  0.452  0.890
      -0.577 -0.761  0.292 -0.025  0.038
      -0.577  0.633  0.513  0.046  0.002
      -0.000  0.055  0.009 -0.890  0.452
       0.577 -0.128  0.805  0.021  0.041
     occupation matrix ns (before diag.):
       0.609  0.013  0.013  0.000  0.026
       0.013  0.035 -0.001  0.023  0.001
       0.013 -0.001  0.035 -0.023  0.001
       0.000  0.023 -0.023  0.609 -0.000
       0.026  0.001  0.001 -0.000  0.035
     SPIN  2
     eigenvalues:
       0.986  0.986  0.997  0.997  0.997
     eigenvectors (columns):
       0.670 -0.740 -0.058  0.011  0.000
      -0.015 -0.046  0.534  0.616 -0.577
       0.047  0.010  0.266 -0.770 -0.577
      -0.740 -0.670 -0.011 -0.058  0.000
       0.032 -0.036  0.800 -0.155  0.577
     occupation matrix ns (before diag.):
       0.986 -0.000 -0.000  0.000 -0.001
      -0.000  0.997  0.000 -0.000 -0.000
      -0.000  0.000  0.997  0.000 -0.000
       0.000 -0.000  0.000  0.986 -0.000
      -0.001 -0.000 -0.000 -0.000  0.997

     Number of occupied Hubbard levels =   12.5691

     negative rho (up, down):  2.281E-04 2.239E-04

     HUBBARD ENERGY =    0.2064  (Ry)

     total cpu time spent up to now is      397.1 secs

     total energy              =    -741.42088686 Ry
     estimated scf accuracy    <       0.00007579 Ry

     total magnetization       =    -0.00 Bohr mag/cell
     absolute magnetization    =     7.44 Bohr mag/cell

     iteration # 56     ecut=    70.00 Ry     beta= 0.10
     Davidson diagonalization with overlap

---- Real-time Memory Report at c_bands before calling an iterative solver
           212 MiB given to the printing process from OS
           128 MiB allocation reported by mallinfo(arena+hblkhd)
          7609 MiB available memory on the node where the printing process lives
------------------
     ethr =  8.76E-08,  avg # of iterations =  1.8

     =================== HUBBARD OCCUPATIONS ===================
     ------------------------ ATOM    1 ------------------------
     Tr[ns(  1)] (up, down, total) =   4.96227  1.32342  6.28569
     Atomic magnetic moment for atom   1 =   3.63885
     SPIN  1
     eigenvalues:
       0.986  0.986  0.997  0.997  0.997
     eigenvectors (columns):
       0.509 -0.859 -0.059  0.008  0.000
      -0.024 -0.043  0.501  0.643 -0.577
       0.049  0.001  0.306 -0.755 -0.577
      -0.859 -0.509 -0.008 -0.059  0.000
       0.025 -0.042  0.807 -0.113  0.577
     occupation matrix ns (before diag.):
       0.986 -0.000 -0.000  0.000 -0.001
      -0.000  0.997  0.000 -0.000 -0.000
      -0.000  0.000  0.997  0.000 -0.000
       0.000 -0.000  0.000  0.986 -0.000
      -0.001 -0.000 -0.000 -0.000  0.997
     SPIN  2
     eigenvalues:
       0.033  0.034  0.034  0.612  0.612
     eigenvectors (columns):
      -0.000  0.056  0.015  0.625  0.778
      -0.577 -0.581  0.572 -0.017  0.044
      -0.577 -0.205 -0.789  0.047 -0.007
      -0.000  0.015 -0.056 -0.778  0.625
       0.577 -0.786 -0.217  0.030  0.037
     occupation matrix ns (before diag.):
       0.610  0.014  0.014  0.000  0.027
       0.014  0.035 -0.001  0.024  0.001
       0.014 -0.001  0.035 -0.024  0.001
       0.000  0.024 -0.024  0.610 -0.000
       0.027  0.001  0.001 -0.000  0.035
     ------------------------ ATOM    2 ------------------------
     Tr[ns(  2)] (up, down, total) =   1.32263  4.96293  6.28556
     Atomic magnetic moment for atom   2 =  -3.64030
     SPIN  1
     eigenvalues:
       0.033  0.034  0.034  0.611  0.611
     eigenvectors (columns):
      -0.000 -0.048 -0.014  0.364  0.930
      -0.577  0.593 -0.559 -0.026  0.032
      -0.577  0.188  0.794  0.041  0.006
      -0.000 -0.014  0.048 -0.930  0.364
       0.577  0.781  0.234  0.015  0.038
     occupation matrix ns (before diag.):
       0.609  0.012  0.012  0.000  0.024
       0.012  0.035 -0.001  0.021  0.001
       0.012 -0.001  0.035 -0.021  0.001
       0.000  0.021 -0.021  0.609 -0.000
       0.024  0.001  0.001 -0.000  0.035
     SPIN  2
     eigenvalues:
       0.986  0.986  0.997  0.997  0.997
     eigenvectors (columns):
       0.518 -0.853 -0.056  0.011  0.000
      -0.022 -0.041  0.537  0.613 -0.577
       0.047  0.001  0.262 -0.772 -0.577
      -0.853 -0.518 -0.011 -0.056  0.000
       0.024 -0.040  0.800 -0.159  0.577
     occupation matrix ns (before diag.):
       0.986 -0.000 -0.000  0.000 -0.001
      -0.000  0.997  0.000 -0.000 -0.000
      -0.000  0.000  0.997  0.000 -0.000
       0.000 -0.000  0.000  0.986 -0.000
      -0.001 -0.000 -0.000 -0.000  0.997

     Number of occupied Hubbard levels =   12.5713

     negative rho (up, down):  2.270E-04 2.235E-04

     HUBBARD ENERGY =    0.2069  (Ry)

     total cpu time spent up to now is      405.6 secs

     total energy              =    -741.42092995 Ry
     estimated scf accuracy    <       0.00004853 Ry

     total magnetization       =    -0.00 Bohr mag/cell
     absolute magnetization    =     7.44 Bohr mag/cell

     iteration # 57     ecut=    70.00 Ry     beta= 0.10
     Davidson diagonalization with overlap

---- Real-time Memory Report at c_bands before calling an iterative solver
           212 MiB given to the printing process from OS
           128 MiB allocation reported by mallinfo(arena+hblkhd)
          7709 MiB available memory on the node where the printing process lives
------------------
     ethr =  8.76E-08,  avg # of iterations =  2.6

     =================== HUBBARD OCCUPATIONS ===================
     ------------------------ ATOM    1 ------------------------
     Tr[ns(  1)] (up, down, total) =   4.96229  1.32339  6.28568
     Atomic magnetic moment for atom   1 =   3.63890
     SPIN  1
     eigenvalues:
       0.986  0.986  0.997  0.997  0.997
     eigenvectors (columns):
       0.321  0.945 -0.057  0.012  0.000
      -0.031  0.036  0.548  0.604 -0.577
       0.046  0.009  0.249 -0.776 -0.577
      -0.945  0.321 -0.012 -0.057  0.000
       0.015  0.045  0.797 -0.172  0.577
     occupation matrix ns (before diag.):
       0.986 -0.000 -0.000  0.000 -0.001
      -0.000  0.997  0.000 -0.000 -0.000
      -0.000  0.000  0.997  0.000 -0.000
       0.000 -0.000  0.000  0.986 -0.000
      -0.001 -0.000 -0.000 -0.000  0.997
     SPIN  2
     eigenvalues:
       0.033  0.034  0.034  0.611  0.611
     eigenvectors (columns):
      -0.000  0.054  0.003  0.724 -0.688
      -0.577 -0.451  0.680 -0.010 -0.043
      -0.577 -0.363 -0.730  0.042  0.012
      -0.000  0.003 -0.054 -0.688 -0.724
       0.577 -0.814 -0.050  0.032 -0.030
     occupation matrix ns (before diag.):
       0.610  0.013  0.013  0.000  0.025
       0.013  0.035 -0.001  0.022  0.001
       0.013 -0.001  0.035 -0.022  0.001
       0.000  0.022 -0.022  0.610 -0.000
       0.025  0.001  0.001 -0.000  0.035
     ------------------------ ATOM    2 ------------------------
     Tr[ns(  2)] (up, down, total) =   1.32343  4.96285  6.28629
     Atomic magnetic moment for atom   2 =  -3.63942
     SPIN  1
     eigenvalues:
       0.034  0.034  0.034  0.611  0.611
     eigenvectors (columns):
      -0.000  0.044  0.010  0.723 -0.690
      -0.577 -0.559  0.594 -0.009 -0.036
      -0.577 -0.235 -0.781  0.035  0.010
      -0.000  0.010 -0.044 -0.690 -0.723
       0.577 -0.794 -0.187  0.027 -0.025
     occupation matrix ns (before diag.):
       0.610  0.011  0.011  0.000  0.021
       0.011  0.035 -0.000  0.018  0.000
       0.011 -0.000  0.035 -0.018  0.000
       0.000  0.018 -0.018  0.610 -0.000
       0.021  0.000  0.000 -0.000  0.035
     SPIN  2
     eigenvalues:
       0.986  0.986  0.997  0.997  0.997
     eigenvectors (columns):
       0.613 -0.788 -0.054  0.009  0.000
      -0.017 -0.042  0.523  0.626 -0.577
       0.045  0.006  0.280 -0.765 -0.577
      -0.788 -0.613 -0.009 -0.054  0.000
       0.028 -0.036  0.803 -0.140  0.577
     occupation matrix ns (before diag.):
       0.986 -0.000 -0.000  0.000 -0.000
      -0.000  0.997  0.000 -0.000 -0.000
      -0.000  0.000  0.997  0.000 -0.000
       0.000 -0.000  0.000  0.986 -0.000
      -0.000 -0.000 -0.000 -0.000  0.997

     Number of occupied Hubbard levels =   12.5720

     negative rho (up, down):  2.278E-04 2.260E-04

     HUBBARD ENERGY =    0.2067  (Ry)

     total cpu time spent up to now is      412.7 secs

     total energy              =    -741.42095815 Ry
     estimated scf accuracy    <       0.00003929 Ry

     total magnetization       =    -0.00 Bohr mag/cell
     absolute magnetization    =     7.44 Bohr mag/cell

     iteration # 58     ecut=    70.00 Ry     beta= 0.10
     Davidson diagonalization with overlap

---- Real-time Memory Report at c_bands before calling an iterative solver
           212 MiB given to the printing process from OS
           128 MiB allocation reported by mallinfo(arena+hblkhd)
          7711 MiB available memory on the node where the printing process lives
------------------
     ethr =  8.76E-08,  avg # of iterations =  2.7

     =================== HUBBARD OCCUPATIONS ===================
     ------------------------ ATOM    1 ------------------------
     Tr[ns(  1)] (up, down, total) =   4.96266  1.32018  6.28284
     Atomic magnetic moment for atom   1 =   3.64248
     SPIN  1
     eigenvalues:
       0.986  0.986  0.997  0.997  0.997
     eigenvectors (columns):
       0.545 -0.837 -0.055  0.008  0.000
      -0.021 -0.041  0.509  0.636 -0.577
       0.046  0.002  0.296 -0.759 -0.577
      -0.837 -0.545 -0.008 -0.055  0.000
       0.025 -0.038  0.806 -0.123  0.577
     occupation matrix ns (before diag.):
       0.986 -0.000 -0.000  0.000 -0.000
      -0.000  0.997  0.000 -0.000 -0.000
      -0.000  0.000  0.997  0.000 -0.000
       0.000 -0.000  0.000  0.986 -0.000
      -0.000 -0.000 -0.000 -0.000  0.997
     SPIN  2
     eigenvalues:
       0.033  0.034  0.034  0.610  0.610
     eigenvectors (columns):
      -0.000  0.050  0.007  0.545  0.837
      -0.577 -0.508  0.638 -0.019  0.037
      -0.577 -0.299 -0.759  0.041 -0.002
      -0.000  0.007 -0.050 -0.837  0.545
       0.577 -0.806 -0.121  0.022  0.034
     occupation matrix ns (before diag.):
       0.609  0.012  0.012  0.000  0.024
       0.012  0.034 -0.001  0.020  0.001
       0.012 -0.001  0.034 -0.020  0.001
       0.000  0.020 -0.020  0.609 -0.000
       0.024  0.001  0.001 -0.000  0.034
     ------------------------ ATOM    2 ------------------------
     Tr[ns(  2)] (up, down, total) =   1.32194  4.96294  6.28489
     Atomic magnetic moment for atom   2 =  -3.64100
     SPIN  1
     eigenvalues:
       0.033  0.034  0.034  0.610  0.610
     eigenvectors (columns):
      -0.000  0.036  0.017  0.509  0.860
      -0.577 -0.672  0.463 -0.016  0.029
      -0.577 -0.065 -0.813  0.033 -0.000
      -0.000  0.017 -0.036 -0.860  0.509
       0.577 -0.737 -0.350  0.017  0.028
     occupation matrix ns (before diag.):
       0.610  0.009  0.009  0.000  0.019
       0.009  0.034 -0.000  0.016  0.000
       0.009 -0.000  0.034 -0.016  0.000
       0.000  0.016 -0.016  0.610 -0.000
       0.019  0.000  0.000 -0.000  0.034
     SPIN  2
     eigenvalues:
       0.986  0.986  0.997  0.997  0.997
     eigenvectors (columns):
       0.589 -0.806 -0.053  0.007  0.000
      -0.018 -0.040  0.493  0.650 -0.577
       0.043  0.005  0.316 -0.751 -0.577
      -0.806 -0.589 -0.007 -0.053  0.000
       0.026 -0.035  0.809 -0.102  0.577
     occupation matrix ns (before diag.):
       0.986 -0.000 -0.000  0.000 -0.000
      -0.000  0.997  0.000 -0.000 -0.000
      -0.000  0.000  0.997  0.000 -0.000
       0.000 -0.000  0.000  0.986 -0.000
      -0.000 -0.000 -0.000 -0.000  0.997

     Number of occupied Hubbard levels =   12.5677

     negative rho (up, down):  2.270E-04 2.239E-04

     HUBBARD ENERGY =    0.2066  (Ry)

     total cpu time spent up to now is      420.3 secs

     total energy              =    -741.42087269 Ry
     estimated scf accuracy    <       0.00006273 Ry

     total magnetization       =     0.00 Bohr mag/cell
     absolute magnetization    =     7.44 Bohr mag/cell

     iteration # 59     ecut=    70.00 Ry     beta= 0.10
     Davidson diagonalization with overlap

---- Real-time Memory Report at c_bands before calling an iterative solver
           212 MiB given to the printing process from OS
           128 MiB allocation reported by mallinfo(arena+hblkhd)
          7711 MiB available memory on the node where the printing process lives
------------------
     ethr =  8.76E-08,  avg # of iterations =  2.8

     =================== HUBBARD OCCUPATIONS ===================
     ------------------------ ATOM    1 ------------------------
     Tr[ns(  1)] (up, down, total) =   4.96252  1.32117  6.28368
     Atomic magnetic moment for atom   1 =   3.64135
     SPIN  1
     eigenvalues:
       0.986  0.986  0.997  0.997  0.997
     eigenvectors (columns):
       0.615 -0.786 -0.059  0.008  0.000
      -0.018 -0.045  0.504  0.641 -0.577
       0.048  0.007  0.303 -0.757 -0.577
      -0.786 -0.615 -0.008 -0.059  0.000
       0.030 -0.038  0.807 -0.116  0.577
     occupation matrix ns (before diag.):
       0.986 -0.000 -0.000  0.000 -0.001
      -0.000  0.997  0.000 -0.000 -0.000
      -0.000  0.000  0.997  0.000 -0.000
       0.000 -0.000  0.000  0.986 -0.000
      -0.001 -0.000 -0.000 -0.000  0.997
     SPIN  2
     eigenvalues:
       0.033  0.033  0.033  0.611  0.611
     eigenvectors (columns):
      -0.000  0.058  0.009  0.824  0.564
      -0.577 -0.513  0.633 -0.004  0.048
      -0.577 -0.292 -0.761  0.043 -0.021
      -0.000  0.009 -0.058 -0.564  0.824
       0.577 -0.805 -0.128  0.039  0.027
     occupation matrix ns (before diag.):
       0.609  0.014  0.014  0.000  0.028
       0.014  0.035 -0.001  0.024  0.001
       0.014 -0.001  0.035 -0.024  0.001
       0.000  0.024 -0.024  0.609 -0.000
       0.028  0.001  0.001 -0.000  0.035
     ------------------------ ATOM    2 ------------------------
     Tr[ns(  2)] (up, down, total) =   1.32190  4.96298  6.28488
     Atomic magnetic moment for atom   2 =  -3.64108
     SPIN  1
     eigenvalues:
       0.033  0.034  0.034  0.611  0.611
     eigenvectors (columns):
      -0.000  0.047  0.019  0.628  0.777
      -0.577 -0.646  0.498 -0.015  0.039
      -0.577 -0.108 -0.808  0.041 -0.006
      -0.000  0.019 -0.047 -0.777  0.628
       0.577 -0.754 -0.311  0.026  0.032
     occupation matrix ns (before diag.):
       0.609  0.012  0.012  0.000  0.024
       0.012  0.035 -0.001  0.021  0.001
       0.012 -0.001  0.035 -0.021  0.001
       0.000  0.021 -0.021  0.609 -0.000
       0.024  0.001  0.001 -0.000  0.035
     SPIN  2
     eigenvalues:
       0.986  0.986  0.997  0.997  0.997
     eigenvectors (columns):
       0.506 -0.861 -0.056  0.011  0.000
      -0.023 -0.041  0.539  0.611 -0.577
       0.047  0.000  0.260 -0.773 -0.577
      -0.861 -0.506 -0.011 -0.056  0.000
       0.024 -0.040  0.799 -0.161  0.577
     occupation matrix ns (before diag.):
       0.986 -0.000 -0.000  0.000 -0.001
      -0.000  0.997  0.000 -0.000 -0.000
      -0.000  0.000  0.997  0.000 -0.000
       0.000 -0.000  0.000  0.986 -0.000
      -0.001 -0.000 -0.000 -0.000  0.997

     Number of occupied Hubbard levels =   12.5686

     negative rho (up, down):  2.274E-04 2.231E-04

     HUBBARD ENERGY =    0.2063  (Ry)

     total cpu time spent up to now is      427.8 secs

     total energy              =    -741.42094670 Ry
     estimated scf accuracy    <       0.00006614 Ry

     total magnetization       =    -0.00 Bohr mag/cell
     absolute magnetization    =     7.44 Bohr mag/cell

     iteration # 60     ecut=    70.00 Ry     beta= 0.10
     Davidson diagonalization with overlap

---- Real-time Memory Report at c_bands before calling an iterative solver
           212 MiB given to the printing process from OS
           128 MiB allocation reported by mallinfo(arena+hblkhd)
          7713 MiB available memory on the node where the printing process lives
------------------
     ethr =  8.76E-08,  avg # of iterations =  1.1

     =================== HUBBARD OCCUPATIONS ===================
     ------------------------ ATOM    1 ------------------------
     Tr[ns(  1)] (up, down, total) =   4.96239  1.32269  6.28508
     Atomic magnetic moment for atom   1 =   3.63971
     SPIN  1
     eigenvalues:
       0.986  0.986  0.997  0.997  0.997
     eigenvectors (columns):
       0.614 -0.787 -0.058  0.010  0.000
      -0.018 -0.045  0.523  0.626 -0.577
       0.048  0.007  0.280 -0.765 -0.577
      -0.787 -0.614 -0.010 -0.058  0.000
       0.030 -0.038  0.803 -0.140  0.577
     occupation matrix ns (before diag.):
       0.986 -0.000 -0.000  0.000 -0.001
      -0.000  0.997  0.000 -0.000 -0.000
      -0.000  0.000  0.997  0.000 -0.000
       0.000 -0.000  0.000  0.986 -0.000
      -0.001 -0.000 -0.000 -0.000  0.997
     SPIN  2
     eigenvalues:
       0.033  0.033  0.033  0.611  0.611
     eigenvectors (columns):
      -0.000 -0.057 -0.006  0.702  0.710
      -0.577  0.485 -0.655 -0.012  0.045
      -0.577  0.325  0.748  0.045 -0.012
      -0.000 -0.006  0.057 -0.710  0.702
       0.577  0.810  0.093  0.033  0.033
     occupation matrix ns (before diag.):
       0.609  0.013  0.013  0.000  0.027
       0.013  0.035 -0.001  0.023  0.001
       0.013 -0.001  0.035 -0.023  0.001
       0.000  0.023 -0.023  0.609 -0.000
       0.027  0.001  0.001 -0.000  0.035
     ------------------------ ATOM    2 ------------------------
     Tr[ns(  2)] (up, down, total) =   1.32143  4.96306  6.28449
     Atomic magnetic moment for atom   2 =  -3.64162
     SPIN  1
     eigenvalues:
       0.033  0.034  0.034  0.610  0.610
     eigenvectors (columns):
      -0.000 -0.010 -0.048  0.394  0.918
      -0.577  0.774  0.258 -0.024  0.032
      -0.577 -0.610  0.541  0.040  0.005
      -0.000 -0.048  0.010 -0.918  0.394
       0.577  0.163  0.799  0.016  0.037
     occupation matrix ns (before diag.):
       0.609  0.011  0.011  0.000  0.023
       0.011  0.035 -0.001  0.020  0.001
       0.011 -0.001  0.035 -0.020  0.001
       0.000  0.020 -0.020  0.609 -0.000
       0.023  0.001  0.001 -0.000  0.035
     SPIN  2
     eigenvalues:
       0.986  0.986  0.997  0.997  0.997
     eigenvectors (columns):
       0.451 -0.891 -0.056  0.009  0.000
      -0.025 -0.039  0.511  0.636 -0.577
       0.046 -0.003  0.295 -0.760 -0.577
      -0.891 -0.451 -0.009 -0.056  0.000
       0.021 -0.041  0.806 -0.124  0.577
     occupation matrix ns (before diag.):
       0.986 -0.000 -0.000  0.000 -0.000
      -0.000  0.997  0.000 -0.000 -0.000
      -0.000  0.000  0.997  0.000 -0.000
       0.000 -0.000  0.000  0.986 -0.000
      -0.000 -0.000 -0.000 -0.000  0.997

     Number of occupied Hubbard levels =   12.5696

     negative rho (up, down):  2.275E-04 2.227E-04

     HUBBARD ENERGY =    0.2063  (Ry)

     total cpu time spent up to now is      434.0 secs

     total energy              =    -741.42083953 Ry
     estimated scf accuracy    <       0.00006241 Ry

     total magnetization       =    -0.00 Bohr mag/cell
     absolute magnetization    =     7.44 Bohr mag/cell

     iteration # 61     ecut=    70.00 Ry     beta= 0.10
     Davidson diagonalization with overlap

---- Real-time Memory Report at c_bands before calling an iterative solver
           212 MiB given to the printing process from OS
           128 MiB allocation reported by mallinfo(arena+hblkhd)
          7713 MiB available memory on the node where the printing process lives
------------------
     ethr =  8.76E-08,  avg # of iterations =  5.0

     =================== HUBBARD OCCUPATIONS ===================
     ------------------------ ATOM    1 ------------------------
     Tr[ns(  1)] (up, down, total) =   4.96216  1.32534  6.28750
     Atomic magnetic moment for atom   1 =   3.63682
     SPIN  1
     eigenvalues:
       0.986  0.986  0.997  0.997  0.997
     eigenvectors (columns):
      -0.613 -0.788 -0.051 -0.005 -0.000
       0.016 -0.039  0.480 -0.659  0.577
      -0.042  0.006  0.331  0.745  0.577
       0.788 -0.613 -0.005  0.051 -0.000
      -0.026 -0.033  0.811  0.086 -0.577
     occupation matrix ns (before diag.):
       0.986 -0.000 -0.000  0.000 -0.000
      -0.000  0.997  0.000 -0.000 -0.000
      -0.000  0.000  0.997  0.000 -0.000
       0.000 -0.000  0.000  0.986 -0.000
      -0.000 -0.000 -0.000 -0.000  0.997
     SPIN  2
     eigenvalues:
       0.033  0.034  0.034  0.612  0.612
     eigenvectors (columns):
      -0.000  0.040  0.002 -0.682  0.730
      -0.577 -0.450  0.681  0.010  0.032
      -0.577 -0.365 -0.730 -0.032 -0.007
      -0.000  0.002 -0.040  0.730  0.682
       0.577 -0.814 -0.049 -0.023  0.024
     occupation matrix ns (before diag.):
       0.611  0.010  0.010  0.000  0.019
       0.010  0.034 -0.000  0.017  0.000
       0.010 -0.000  0.034 -0.017  0.000
       0.000  0.017 -0.017  0.611 -0.000
       0.019  0.000  0.000 -0.000  0.034
     ------------------------ ATOM    2 ------------------------
     Tr[ns(  2)] (up, down, total) =   1.32424  4.96288  6.28712
     Atomic magnetic moment for atom   2 =  -3.63863
     SPIN  1
     eigenvalues:
       0.034  0.034  0.034  0.611  0.611
     eigenvectors (columns):
      -0.000  0.027  0.003  0.571  0.821
      -0.577 -0.491  0.652 -0.009  0.020
      -0.577 -0.319 -0.751  0.022 -0.002
      -0.000  0.003 -0.027 -0.821  0.571
       0.577 -0.810 -0.100  0.013  0.018
     occupation matrix ns (before diag.):
       0.611  0.006  0.006  0.000  0.013
       0.006  0.034 -0.000  0.011  0.000
       0.006 -0.000  0.034 -0.011  0.000
       0.000  0.011 -0.011  0.611 -0.000
       0.013  0.000  0.000 -0.000  0.034
     SPIN  2
     eigenvalues:
       0.986  0.986  0.997  0.997  0.997
     eigenvectors (columns):
      -0.544 -0.838 -0.047  0.008  0.000
       0.018 -0.035  0.518  0.630 -0.577
      -0.039  0.002  0.286 -0.764 -0.577
       0.838 -0.544 -0.008 -0.047  0.000
      -0.021 -0.033  0.804 -0.134  0.577
     occupation matrix ns (before diag.):
       0.986 -0.000 -0.000  0.000 -0.000
      -0.000  0.997  0.000 -0.000 -0.000
      -0.000  0.000  0.997  0.000 -0.000
       0.000 -0.000  0.000  0.986 -0.000
      -0.000 -0.000 -0.000 -0.000  0.997

     Number of occupied Hubbard levels =   12.5746

     negative rho (up, down):  2.270E-04 2.206E-04

     HUBBARD ENERGY =    0.2069  (Ry)

     total cpu time spent up to now is      443.6 secs

     total energy              =    -741.42092415 Ry
     estimated scf accuracy    <       0.00005203 Ry

     total magnetization       =    -0.00 Bohr mag/cell
     absolute magnetization    =     7.43 Bohr mag/cell

     iteration # 62     ecut=    70.00 Ry     beta= 0.10
     Davidson diagonalization with overlap

---- Real-time Memory Report at c_bands before calling an iterative solver
           212 MiB given to the printing process from OS
           128 MiB allocation reported by mallinfo(arena+hblkhd)
          7712 MiB available memory on the node where the printing process lives
------------------
     ethr =  8.76E-08,  avg # of iterations =  4.6

     =================== HUBBARD OCCUPATIONS ===================
     ------------------------ ATOM    1 ------------------------
     Tr[ns(  1)] (up, down, total) =   4.96180  1.32773  6.28952
     Atomic magnetic moment for atom   1 =   3.63407
     SPIN  1
     eigenvalues:
       0.986  0.986  0.997  0.997  0.997
     eigenvectors (columns):
       0.566 -0.822 -0.055  0.010  0.000
      -0.020 -0.042  0.531  0.619 -0.577
       0.046  0.004  0.271 -0.769 -0.577
      -0.822 -0.566 -0.010 -0.055  0.000
       0.026 -0.038  0.801 -0.150  0.577
     occupation matrix ns (before diag.):
       0.986 -0.000 -0.000  0.000 -0.001
      -0.000  0.997  0.000 -0.000 -0.000
      -0.000  0.000  0.997  0.000 -0.000
       0.000 -0.000  0.000  0.986 -0.000
      -0.001 -0.000 -0.000 -0.000  0.997
     SPIN  2
     eigenvalues:
       0.033  0.034  0.034  0.613  0.613
     eigenvectors (columns):
      -0.000  0.051  0.007 -0.742  0.669
      -0.577 -0.496  0.647  0.009  0.041
      -0.577 -0.312 -0.753 -0.040 -0.013
      -0.000  0.007 -0.051  0.669  0.742
       0.577 -0.809 -0.106 -0.031  0.028
     occupation matrix ns (before diag.):
       0.612  0.012  0.012  0.000  0.024
       0.012  0.035 -0.001  0.021  0.001
       0.012 -0.001  0.035 -0.021  0.001
       0.000  0.021 -0.021  0.612 -0.000
       0.024  0.001  0.001 -0.000  0.035
     ------------------------ ATOM    2 ------------------------
     Tr[ns(  2)] (up, down, total) =   1.32562  4.96284  6.28846
     Atomic magnetic moment for atom   2 =  -3.63721
     SPIN  1
     eigenvalues:
       0.034  0.034  0.034  0.612  0.612
     eigenvectors (columns):
      -0.000  0.022  0.035  0.407  0.913
      -0.577 -0.815  0.038 -0.020  0.027
      -0.577  0.375 -0.725  0.033  0.003
      -0.000  0.035 -0.022 -0.913  0.407
       0.577 -0.440 -0.687  0.014  0.031
     occupation matrix ns (before diag.):
       0.611  0.010  0.010  0.000  0.019
       0.010  0.035 -0.000  0.017  0.000
       0.010 -0.000  0.035 -0.017  0.000
       0.000  0.017 -0.017  0.611 -0.000
       0.019  0.000  0.000 -0.000  0.035
     SPIN  2
     eigenvalues:
       0.986  0.986  0.997  0.997  0.997
     eigenvectors (columns):
       0.554 -0.831 -0.052  0.009  0.000
      -0.019 -0.039  0.520  0.628 -0.577
       0.043  0.003  0.284 -0.764 -0.577
      -0.831 -0.554 -0.009 -0.052  0.000
       0.024 -0.036  0.804 -0.136  0.577
     occupation matrix ns (before diag.):
       0.986 -0.000 -0.000  0.000 -0.000
      -0.000  0.997  0.000 -0.000 -0.000
      -0.000  0.000  0.997  0.000 -0.000
       0.000 -0.000  0.000  0.986 -0.000
      -0.000 -0.000 -0.000 -0.000  0.997

     Number of occupied Hubbard levels =   12.5780

     negative rho (up, down):  2.278E-04 2.216E-04

     HUBBARD ENERGY =    0.2071  (Ry)

     total cpu time spent up to now is      453.3 secs

     total energy              =    -741.42094210 Ry
     estimated scf accuracy    <       0.00013210 Ry

     total magnetization       =    -0.01 Bohr mag/cell
     absolute magnetization    =     7.43 Bohr mag/cell

     iteration # 63     ecut=    70.00 Ry     beta= 0.10
     Davidson diagonalization with overlap

---- Real-time Memory Report at c_bands before calling an iterative solver
           212 MiB given to the printing process from OS
           128 MiB allocation reported by mallinfo(arena+hblkhd)
          7713 MiB available memory on the node where the printing process lives
------------------
     ethr =  8.76E-08,  avg # of iterations =  2.2

     =================== HUBBARD OCCUPATIONS ===================
     ------------------------ ATOM    1 ------------------------
     Tr[ns(  1)] (up, down, total) =   4.96191  1.32714  6.28905
     Atomic magnetic moment for atom   1 =   3.63477
     SPIN  1
     eigenvalues:
       0.986  0.986  0.997  0.997  0.997
     eigenvectors (columns):
       0.729 -0.682 -0.058  0.009  0.000
      -0.011 -0.046  0.508  0.638 -0.577
       0.045  0.014  0.298 -0.759 -0.577
      -0.682 -0.729 -0.009 -0.058  0.000
       0.035 -0.032  0.806 -0.121  0.577
     occupation matrix ns (before diag.):
       0.986 -0.000 -0.000  0.000 -0.001
      -0.000  0.997  0.000 -0.000 -0.000
      -0.000  0.000  0.997  0.000 -0.000
       0.000 -0.000  0.000  0.986 -0.000
      -0.001 -0.000 -0.000 -0.000  0.997
     SPIN  2
     eigenvalues:
       0.033  0.034  0.034  0.613  0.613
     eigenvectors (columns):
      -0.000 -0.054 -0.008  0.691  0.721
      -0.577  0.508 -0.638 -0.013  0.043
      -0.577  0.299  0.759  0.043 -0.011
      -0.000 -0.008  0.054 -0.721  0.691
       0.577  0.806  0.121  0.031  0.032
     occupation matrix ns (before diag.):
       0.611  0.013  0.013  0.000  0.026
       0.013  0.035 -0.001  0.022  0.001
       0.013 -0.001  0.035 -0.022  0.001
       0.000  0.022 -0.022  0.611 -0.000
       0.026  0.001  0.001 -0.000  0.035
     ------------------------ ATOM    2 ------------------------
     Tr[ns(  2)] (up, down, total) =   1.32470  4.96292  6.28761
     Atomic magnetic moment for atom   2 =  -3.63822
     SPIN  1
     eigenvalues:
       0.034  0.034  0.034  0.611  0.611
     eigenvectors (columns):
      -0.000  0.046  0.007  0.427  0.903
      -0.577 -0.506  0.640 -0.022  0.031
      -0.577 -0.301 -0.758  0.038  0.003
      -0.000  0.007 -0.046 -0.903  0.427
       0.577 -0.807 -0.118  0.016  0.034
     occupation matrix ns (before diag.):
       0.610  0.011  0.011  0.000  0.022
       0.011  0.035 -0.001  0.019  0.001
       0.011 -0.001  0.035 -0.019  0.001
       0.000  0.019 -0.019  0.610 -0.000
       0.022  0.001  0.001 -0.000  0.035
     SPIN  2
     eigenvalues:
       0.986  0.986  0.997  0.997  0.997
     eigenvectors (columns):
       0.434  0.899 -0.055  0.010  0.000
      -0.025  0.037  0.526  0.623 -0.577
       0.045  0.003  0.276 -0.767 -0.577
      -0.899  0.434 -0.010 -0.055  0.000
       0.020  0.041  0.802 -0.145  0.577
     occupation matrix ns (before diag.):
       0.986 -0.000 -0.000  0.000 -0.000
      -0.000  0.997  0.000 -0.000 -0.000
      -0.000  0.000  0.997  0.000 -0.000
       0.000 -0.000  0.000  0.986 -0.000
      -0.000 -0.000 -0.000 -0.000  0.997

     Number of occupied Hubbard levels =   12.5767

     negative rho (up, down):  2.280E-04 2.224E-04

     HUBBARD ENERGY =    0.2072  (Ry)

     total cpu time spent up to now is      459.9 secs

     total energy              =    -741.42093456 Ry
     estimated scf accuracy    <       0.00011866 Ry

     total magnetization       =    -0.01 Bohr mag/cell
     absolute magnetization    =     7.43 Bohr mag/cell

     iteration # 64     ecut=    70.00 Ry     beta= 0.10
     Davidson diagonalization with overlap

---- Real-time Memory Report at c_bands before calling an iterative solver
           212 MiB given to the printing process from OS
           128 MiB allocation reported by mallinfo(arena+hblkhd)
          7712 MiB available memory on the node where the printing process lives
------------------
     ethr =  8.76E-08,  avg # of iterations =  1.3

     =================== HUBBARD OCCUPATIONS ===================
     ------------------------ ATOM    1 ------------------------
     Tr[ns(  1)] (up, down, total) =   4.96201  1.32660  6.28860
     Atomic magnetic moment for atom   1 =   3.63541
     SPIN  1
     eigenvalues:
       0.986  0.986  0.997  0.997  0.997
     eigenvectors (columns):
       0.541 -0.839 -0.058  0.008  0.000
      -0.022 -0.043  0.498  0.646 -0.577
       0.048  0.002  0.310 -0.754 -0.577
      -0.839 -0.541 -0.008 -0.058  0.000
       0.026 -0.040  0.808 -0.108  0.577
     occupation matrix ns (before diag.):
       0.986 -0.000 -0.000  0.000 -0.001
      -0.000  0.997  0.000 -0.000 -0.000
      -0.000  0.000  0.997  0.000 -0.000
       0.000 -0.000  0.000  0.986 -0.000
      -0.001 -0.000 -0.000 -0.000  0.997
     SPIN  2
     eigenvalues:
       0.033  0.034  0.034  0.613  0.613
     eigenvectors (columns):
       0.000  0.053  0.019  0.302 -0.952
       0.577 -0.623  0.526 -0.031 -0.034
       0.577 -0.144 -0.802  0.045 -0.010
       0.000  0.019 -0.053 -0.952 -0.302
      -0.577 -0.767 -0.276  0.014 -0.044
     occupation matrix ns (before diag.):
       0.611  0.013  0.013  0.000  0.026
       0.013  0.035 -0.001  0.023  0.001
       0.013 -0.001  0.035 -0.023  0.001
       0.000  0.023 -0.023  0.611 -0.000
       0.026  0.001  0.001 -0.000  0.035
     ------------------------ ATOM    2 ------------------------
     Tr[ns(  2)] (up, down, total) =   1.32439  4.96295  6.28734
     Atomic magnetic moment for atom   2 =  -3.63855
     SPIN  1
     eigenvalues:
       0.034  0.034  0.034  0.611  0.611
     eigenvectors (columns):
      -0.000  0.048 -0.004  0.729  0.683
      -0.577 -0.463 -0.671 -0.009  0.038
      -0.577 -0.349  0.737  0.038 -0.011
      -0.000  0.004  0.048 -0.683  0.729
       0.577 -0.813  0.066  0.029  0.027
     occupation matrix ns (before diag.):
       0.610  0.011  0.011  0.000  0.023
       0.011  0.035 -0.001  0.020  0.001
       0.011 -0.001  0.035 -0.020  0.001
       0.000  0.020 -0.020  0.610 -0.000
       0.023  0.001  0.001 -0.000  0.035
     SPIN  2
     eigenvalues:
       0.986  0.986  0.997  0.997  0.997
     eigenvectors (columns):
       0.484 -0.873 -0.055  0.013  0.000
      -0.024 -0.039  0.555  0.597 -0.577
       0.046 -0.001  0.240 -0.779 -0.577
      -0.873 -0.484 -0.013 -0.055  0.000
       0.022 -0.040  0.795 -0.182  0.577
     occupation matrix ns (before diag.):
       0.986 -0.000 -0.000  0.000 -0.000
      -0.000  0.997  0.000 -0.000 -0.000
      -0.000  0.000  0.997  0.000 -0.000
       0.000 -0.000  0.000  0.986 -0.000
      -0.000 -0.000 -0.000 -0.000  0.997

     Number of occupied Hubbard levels =   12.5759

     negative rho (up, down):  2.278E-04 2.225E-04

     HUBBARD ENERGY =    0.2069  (Ry)

     total cpu time spent up to now is      468.9 secs

     total energy              =    -741.42092506 Ry
     estimated scf accuracy    <       0.00009860 Ry

     total magnetization       =    -0.01 Bohr mag/cell
     absolute magnetization    =     7.43 Bohr mag/cell

     iteration # 65     ecut=    70.00 Ry     beta= 0.10
     Davidson diagonalization with overlap

---- Real-time Memory Report at c_bands before calling an iterative solver
           212 MiB given to the printing process from OS
           128 MiB allocation reported by mallinfo(arena+hblkhd)
          7713 MiB available memory on the node where the printing process lives
------------------
     ethr =  8.76E-08,  avg # of iterations =  1.2

     =================== HUBBARD OCCUPATIONS ===================
     ------------------------ ATOM    1 ------------------------
     Tr[ns(  1)] (up, down, total) =   4.96210  1.32557  6.28766
     Atomic magnetic moment for atom   1 =   3.63653
     SPIN  1
     eigenvalues:
       0.986  0.986  0.997  0.997  0.997
     eigenvectors (columns):
       0.506 -0.860 -0.058  0.012  0.000
      -0.024 -0.042  0.543  0.608 -0.577
       0.048  0.000  0.255 -0.774 -0.577
      -0.860 -0.506 -0.012 -0.058  0.000
       0.025 -0.042  0.798 -0.167  0.577
     occupation matrix ns (before diag.):
       0.986 -0.000 -0.000  0.000 -0.001
      -0.000  0.997  0.000 -0.000 -0.000
      -0.000  0.000  0.997  0.000 -0.000
       0.000 -0.000  0.000  0.986 -0.000
      -0.001 -0.000 -0.000 -0.000  0.997
     SPIN  2
     eigenvalues:
       0.033  0.034  0.034  0.612  0.612
     eigenvectors (columns):
      -0.000  0.057  0.007  0.588  0.807
      -0.577 -0.486  0.654 -0.019  0.043
      -0.577 -0.324 -0.748  0.047 -0.005
      -0.000  0.007 -0.057 -0.807  0.588
       0.577 -0.810 -0.094  0.028  0.038
     occupation matrix ns (before diag.):
       0.611  0.014  0.014  0.000  0.027
       0.014  0.035 -0.001  0.023  0.001
       0.014 -0.001  0.035 -0.023  0.001
       0.000  0.023 -0.023  0.611 -0.000
       0.027  0.001  0.001 -0.000  0.035
     ------------------------ ATOM    2 ------------------------
     Tr[ns(  2)] (up, down, total) =   1.32445  4.96297  6.28741
     Atomic magnetic moment for atom   2 =  -3.63852
     SPIN  1
     eigenvalues:
       0.034  0.034  0.034  0.611  0.611
     eigenvectors (columns):
      -0.000  0.050  0.002  0.750 -0.659
      -0.577 -0.443  0.685 -0.008 -0.040
      -0.577 -0.372 -0.726  0.038  0.013
      -0.000  0.002 -0.050 -0.659 -0.750
       0.577 -0.814 -0.041  0.030 -0.027
     occupation matrix ns (before diag.):
       0.610  0.012  0.012  0.000  0.023
       0.012  0.035 -0.001  0.020  0.001
       0.012 -0.001  0.035 -0.020  0.001
       0.000  0.020 -0.020  0.610 -0.000
       0.023  0.001  0.001 -0.000  0.035
     SPIN  2
     eigenvalues:
       0.986  0.986  0.997  0.997  0.997
     eigenvectors (columns):
       0.545 -0.837 -0.056  0.009  0.000
      -0.021 -0.041  0.518  0.630 -0.577
       0.046  0.002  0.286 -0.763 -0.577
      -0.837 -0.545 -0.009 -0.056  0.000
       0.025 -0.039  0.804 -0.134  0.577
     occupation matrix ns (before diag.):
       0.986 -0.000 -0.000  0.000 -0.000
      -0.000  0.997  0.000 -0.000 -0.000
      -0.000  0.000  0.997  0.000 -0.000
       0.000 -0.000  0.000  0.986 -0.000
      -0.000 -0.000 -0.000 -0.000  0.997

     Number of occupied Hubbard levels =   12.5751

     negative rho (up, down):  2.297E-04 2.239E-04

     HUBBARD ENERGY =    0.2070  (Ry)

     total cpu time spent up to now is      475.3 secs

     total energy              =    -741.42092305 Ry
     estimated scf accuracy    <       0.00008931 Ry

     total magnetization       =    -0.00 Bohr mag/cell
     absolute magnetization    =     7.43 Bohr mag/cell

     iteration # 66     ecut=    70.00 Ry     beta= 0.10
     Davidson diagonalization with overlap

---- Real-time Memory Report at c_bands before calling an iterative solver
           212 MiB given to the printing process from OS
           128 MiB allocation reported by mallinfo(arena+hblkhd)
          7713 MiB available memory on the node where the printing process lives
------------------
     ethr =  8.76E-08,  avg # of iterations =  1.1

     =================== HUBBARD OCCUPATIONS ===================
     ------------------------ ATOM    1 ------------------------
     Tr[ns(  1)] (up, down, total) =   4.96203  1.32620  6.28823
     Atomic magnetic moment for atom   1 =   3.63583
     SPIN  1
     eigenvalues:
       0.986  0.986  0.997  0.997  0.997
     eigenvectors (columns):
       0.551 -0.832 -0.057  0.012  0.000
      -0.021 -0.042  0.545  0.607 -0.577
       0.047  0.003  0.253 -0.775 -0.577
      -0.832 -0.551 -0.012 -0.057  0.000
       0.026 -0.040  0.798 -0.168  0.577
     occupation matrix ns (before diag.):
       0.986 -0.000 -0.000  0.000 -0.001
      -0.000  0.997  0.000 -0.000 -0.000
      -0.000  0.000  0.997  0.000 -0.000
       0.000 -0.000  0.000  0.986 -0.000
      -0.001 -0.000 -0.000 -0.000  0.997
     SPIN  2
     eigenvalues:
       0.033  0.034  0.034  0.613  0.613
     eigenvectors (columns):
      -0.000  0.011 -0.053 -0.396  0.917
      -0.577 -0.774  0.257  0.026  0.035
      -0.577  0.610  0.541 -0.044  0.005
      -0.000  0.053  0.011  0.917  0.396
       0.577 -0.164  0.799 -0.017  0.040
     occupation matrix ns (before diag.):
       0.611  0.013  0.013  0.000  0.025
       0.013  0.035 -0.001  0.022  0.001
       0.013 -0.001  0.035 -0.022  0.001
       0.000  0.022 -0.022  0.611 -0.000
       0.025  0.001  0.001 -0.000  0.035
     ------------------------ ATOM    2 ------------------------
     Tr[ns(  2)] (up, down, total) =   1.32308  4.96303  6.28611
     Atomic magnetic moment for atom   2 =  -3.63995
     SPIN  1
     eigenvalues:
       0.034  0.034  0.034  0.611  0.611
     eigenvectors (columns):
      -0.000  0.036  0.028  0.795 -0.606
      -0.577 -0.753  0.313 -0.005 -0.037
      -0.577  0.106 -0.809  0.034  0.014
      -0.000  0.028 -0.036 -0.606 -0.795
       0.577 -0.648 -0.496  0.030 -0.023
     occupation matrix ns (before diag.):
       0.609  0.011  0.011  0.000  0.021
       0.011  0.035 -0.000  0.019  0.000
       0.011 -0.000  0.035 -0.019  0.000
       0.000  0.019 -0.019  0.609 -0.000
       0.021  0.000  0.000 -0.000  0.035
     SPIN  2
     eigenvalues:
       0.986  0.986  0.997  0.997  0.997
     eigenvectors (columns):
      -0.461 -0.886 -0.055 -0.009 -0.000
       0.024 -0.038  0.517 -0.631  0.577
      -0.045 -0.002  0.288  0.763  0.577
       0.886 -0.461 -0.009  0.055 -0.000
      -0.021 -0.040  0.804  0.132 -0.577
     occupation matrix ns (before diag.):
       0.986 -0.000 -0.000  0.000 -0.000
      -0.000  0.997  0.000 -0.000 -0.000
      -0.000  0.000  0.997  0.000 -0.000
       0.000 -0.000  0.000  0.986 -0.000
      -0.000 -0.000 -0.000 -0.000  0.997

     Number of occupied Hubbard levels =   12.5743

     negative rho (up, down):  2.296E-04 2.250E-04

     HUBBARD ENERGY =    0.2070  (Ry)

     total cpu time spent up to now is      481.0 secs

     total energy              =    -741.42089668 Ry
     estimated scf accuracy    <       0.00006872 Ry

     total magnetization       =    -0.01 Bohr mag/cell
     absolute magnetization    =     7.43 Bohr mag/cell

     iteration # 67     ecut=    70.00 Ry     beta= 0.10
     Davidson diagonalization with overlap

---- Real-time Memory Report at c_bands before calling an iterative solver
           212 MiB given to the printing process from OS
           128 MiB allocation reported by mallinfo(arena+hblkhd)
          7470 MiB available memory on the node where the printing process lives
------------------
     ethr =  8.76E-08,  avg # of iterations =  4.1

     =================== HUBBARD OCCUPATIONS ===================
     ------------------------ ATOM    1 ------------------------
     Tr[ns(  1)] (up, down, total) =   4.96230  1.32368  6.28598
     Atomic magnetic moment for atom   1 =   3.63862
     SPIN  1
     eigenvalues:
       0.986  0.986  0.997  0.997  0.997
     eigenvectors (columns):
       0.454 -0.890 -0.053  0.007  0.000
      -0.024 -0.037  0.499  0.645 -0.577
       0.044 -0.002  0.309 -0.754 -0.577
      -0.890 -0.454 -0.007 -0.053  0.000
       0.020 -0.039  0.808 -0.110  0.577
     occupation matrix ns (before diag.):
       0.986 -0.000 -0.000  0.000 -0.000
      -0.000  0.997  0.000 -0.000 -0.000
      -0.000  0.000  0.997  0.000 -0.000
       0.000 -0.000  0.000  0.986 -0.000
      -0.000 -0.000 -0.000 -0.000  0.997
     SPIN  2
     eigenvalues:
       0.033  0.034  0.034  0.612  0.612
     eigenvectors (columns):
      -0.000  0.043  0.009  0.487  0.872
      -0.577 -0.543  0.609 -0.019  0.031
      -0.577 -0.255 -0.775  0.036  0.001
      -0.000  0.009 -0.043 -0.872  0.487
       0.577 -0.799 -0.166  0.018  0.032
     occupation matrix ns (before diag.):
       0.610  0.010  0.010  0.000  0.021
       0.010  0.034 -0.000  0.018  0.000
       0.010 -0.000  0.034 -0.018  0.000
       0.000  0.018 -0.018  0.610 -0.000
       0.021  0.000  0.000 -0.000  0.034
     ------------------------ ATOM    2 ------------------------
     Tr[ns(  2)] (up, down, total) =   1.32225  4.96312  6.28537
     Atomic magnetic moment for atom   2 =  -3.64087
     SPIN  1
     eigenvalues:
       0.034  0.034  0.034  0.610  0.610
     eigenvectors (columns):
      -0.000  0.028  0.018  0.720  0.693
      -0.577 -0.729  0.367 -0.006  0.026
      -0.577  0.046 -0.815  0.026 -0.008
      -0.000  0.018 -0.028 -0.693  0.720
       0.577 -0.682 -0.447  0.019  0.019
     occupation matrix ns (before diag.):
       0.610  0.008  0.008  0.000  0.016
       0.008  0.034 -0.000  0.013  0.000
       0.008 -0.000  0.034 -0.013  0.000
       0.000  0.013 -0.013  0.610 -0.000
       0.016  0.000  0.000 -0.000  0.034
     SPIN  2
     eigenvalues:
       0.986  0.986  0.997  0.997  0.997
     eigenvectors (columns):
      -0.678 -0.733 -0.050  0.007  0.000
       0.012 -0.039  0.503  0.642 -0.577
      -0.040  0.009  0.304 -0.757 -0.577
       0.733 -0.678 -0.007 -0.050  0.000
      -0.028 -0.030  0.807 -0.115  0.577
     occupation matrix ns (before diag.):
       0.986 -0.000 -0.000  0.000 -0.000
      -0.000  0.997  0.000 -0.000 -0.000
      -0.000  0.000  0.997  0.000 -0.000
       0.000 -0.000  0.000  0.986 -0.000
      -0.000 -0.000 -0.000 -0.000  0.997

     Number of occupied Hubbard levels =   12.5713

     negative rho (up, down):  2.297E-04 2.242E-04

     HUBBARD ENERGY =    0.2067  (Ry)

     total cpu time spent up to now is      489.1 secs

     total energy              =    -741.42052425 Ry
     estimated scf accuracy    <       0.00004573 Ry

     total magnetization       =    -0.00 Bohr mag/cell
     absolute magnetization    =     7.44 Bohr mag/cell

     iteration # 68     ecut=    70.00 Ry     beta= 0.10
     Davidson diagonalization with overlap

---- Real-time Memory Report at c_bands before calling an iterative solver
           212 MiB given to the printing process from OS
           128 MiB allocation reported by mallinfo(arena+hblkhd)
          7710 MiB available memory on the node where the printing process lives
------------------
     ethr =  8.76E-08,  avg # of iterations =  5.3

     =================== HUBBARD OCCUPATIONS ===================
     ------------------------ ATOM    1 ------------------------
     Tr[ns(  1)] (up, down, total) =   4.96223  1.32432  6.28655
     Atomic magnetic moment for atom   1 =   3.63791
     SPIN  1
     eigenvalues:
       0.986  0.986  0.997  0.997  0.997
     eigenvectors (columns):
       0.561 -0.826 -0.062  0.012  0.000
      -0.023 -0.047  0.534  0.615 -0.577
       0.052  0.004  0.265 -0.770 -0.577
      -0.826 -0.561 -0.012 -0.062  0.000
       0.029 -0.043  0.800 -0.155  0.577
     occupation matrix ns (before diag.):
       0.986 -0.000 -0.000  0.000 -0.001
      -0.000  0.997  0.000 -0.000 -0.000
      -0.000  0.000  0.997  0.000 -0.000
       0.000 -0.000  0.000  0.986 -0.000
      -0.001 -0.000 -0.000 -0.000  0.997
     SPIN  2
     eigenvalues:
       0.033  0.034  0.034  0.612  0.612
     eigenvectors (columns):
      -0.000 -0.065 -0.008  0.456  0.888
      -0.577  0.487 -0.653 -0.029  0.045
      -0.577  0.322  0.748  0.054  0.003
      -0.000 -0.008  0.065 -0.888  0.456
       0.577  0.809  0.095  0.025  0.048
     occupation matrix ns (before diag.):
       0.610  0.016  0.016  0.000  0.031
       0.016  0.035 -0.001  0.027  0.001
       0.016 -0.001  0.035 -0.027  0.001
       0.000  0.027 -0.027  0.610 -0.000
       0.031  0.001  0.001 -0.000  0.035
     ------------------------ ATOM    2 ------------------------
     Tr[ns(  2)] (up, down, total) =   1.32235  4.96311  6.28546
     Atomic magnetic moment for atom   2 =  -3.64076
     SPIN  1
     eigenvalues:
       0.033  0.034  0.034  0.611  0.611
     eigenvectors (columns):
      -0.000  0.062  0.004  0.738  0.672
      -0.577 -0.447  0.681 -0.011  0.049
      -0.577 -0.367 -0.728  0.048 -0.015
      -0.000  0.004 -0.062 -0.672  0.738
       0.577 -0.814 -0.047  0.037  0.034
     occupation matrix ns (before diag.):
       0.608  0.015  0.015  0.000  0.029
       0.015  0.035 -0.001  0.025  0.001
       0.015 -0.001  0.035 -0.025  0.001
       0.000  0.025 -0.025  0.608 -0.000
       0.029  0.001  0.001 -0.000  0.035
     SPIN  2
     eigenvalues:
       0.986  0.986  0.997  0.997  0.997
     eigenvectors (columns):
       0.600 -0.798 -0.061  0.008  0.000
      -0.020 -0.046  0.497  0.646 -0.577
       0.050  0.006  0.311 -0.753 -0.577
      -0.798 -0.600 -0.008 -0.061  0.000
       0.030 -0.040  0.808 -0.108  0.577
     occupation matrix ns (before diag.):
       0.986 -0.000 -0.000  0.000 -0.001
      -0.000  0.997  0.000 -0.000 -0.000
      -0.000  0.000  0.997  0.000 -0.000
       0.000 -0.000  0.000  0.986 -0.000
      -0.001 -0.000 -0.000 -0.000  0.997

     Number of occupied Hubbard levels =   12.5720

     negative rho (up, down):  2.287E-04 2.241E-04

     HUBBARD ENERGY =    0.2070  (Ry)

     total cpu time spent up to now is      498.7 secs

     total energy              =    -741.42088699 Ry
     estimated scf accuracy    <       0.00004516 Ry

     total magnetization       =    -0.00 Bohr mag/cell
     absolute magnetization    =     7.44 Bohr mag/cell

     iteration # 69     ecut=    70.00 Ry     beta= 0.10
     Davidson diagonalization with overlap

---- Real-time Memory Report at c_bands before calling an iterative solver
           212 MiB given to the printing process from OS
           128 MiB allocation reported by mallinfo(arena+hblkhd)
          7709 MiB available memory on the node where the printing process lives
------------------
     ethr =  8.76E-08,  avg # of iterations =  3.0

     =================== HUBBARD OCCUPATIONS ===================
     ------------------------ ATOM    1 ------------------------
     Tr[ns(  1)] (up, down, total) =   4.96225  1.32384  6.28610
     Atomic magnetic moment for atom   1 =   3.63841
     SPIN  1
     eigenvalues:
       0.986  0.986  0.997  0.997  0.997
     eigenvectors (columns):
       0.578 -0.814 -0.059  0.011  0.000
      -0.020 -0.044  0.534  0.616 -0.577
       0.049  0.005  0.267 -0.770 -0.577
      -0.814 -0.578 -0.011 -0.059  0.000
       0.028 -0.040  0.800 -0.154  0.577
     occupation matrix ns (before diag.):
       0.986 -0.000 -0.000  0.000 -0.001
      -0.000  0.997  0.000 -0.000 -0.000
      -0.000  0.000  0.997  0.000 -0.000
       0.000 -0.000  0.000  0.986 -0.000
      -0.001 -0.000 -0.000 -0.000  0.997
     SPIN  2
     eigenvalues:
       0.033  0.034  0.034  0.612  0.612
     eigenvectors (columns):
      -0.000  0.058  0.003  0.377  0.925
      -0.577 -0.442  0.685 -0.029  0.037
      -0.577 -0.372 -0.725  0.047  0.006
      -0.000  0.003 -0.058 -0.925  0.377
       0.577 -0.814 -0.041  0.018  0.044
     occupation matrix ns (before diag.):
       0.610  0.014  0.014  0.000  0.027
       0.014  0.035 -0.001  0.024  0.001
       0.014 -0.001  0.035 -0.024  0.001
       0.000  0.024 -0.024  0.610 -0.000
       0.027  0.001  0.001 -0.000  0.035
     ------------------------ ATOM    2 ------------------------
     Tr[ns(  2)] (up, down, total) =   1.32272  4.96302  6.28574
     Atomic magnetic moment for atom   2 =  -3.64030
     SPIN  1
     eigenvalues:
       0.034  0.034  0.034  0.611  0.611
     eigenvectors (columns):
      -0.000  0.022  0.046 -0.645  0.762
      -0.577 -0.813 -0.058  0.014  0.039
      -0.577  0.457 -0.675 -0.041 -0.007
      -0.000  0.046 -0.022  0.762  0.645
       0.577 -0.356 -0.734 -0.027  0.032
     occupation matrix ns (before diag.):
       0.609  0.012  0.012  0.000  0.024
       0.012  0.035 -0.001  0.021  0.001
       0.012 -0.001  0.035 -0.021  0.001
       0.000  0.021 -0.021  0.609 -0.000
       0.024  0.001  0.001 -0.000  0.035
     SPIN  2
     eigenvalues:
       0.986  0.986  0.997  0.997  0.997
     eigenvectors (columns):
       0.680 -0.731 -0.056  0.012  0.000
      -0.014 -0.045  0.542  0.609 -0.577
       0.046  0.010  0.256 -0.774 -0.577
      -0.731 -0.680 -0.012 -0.056  0.000
       0.032 -0.034  0.798 -0.165  0.577
     occupation matrix ns (before diag.):
       0.986 -0.000 -0.000  0.000 -0.001
      -0.000  0.997  0.000 -0.000 -0.000
      -0.000  0.000  0.997  0.000 -0.000
       0.000 -0.000  0.000  0.986 -0.000
      -0.001 -0.000 -0.000 -0.000  0.997

     Number of occupied Hubbard levels =   12.5718

     negative rho (up, down):  2.306E-04 2.274E-04

     HUBBARD ENERGY =    0.2071  (Ry)

     total cpu time spent up to now is      506.2 secs

     total energy              =    -741.42086276 Ry
     estimated scf accuracy    <       0.00004164 Ry

     total magnetization       =    -0.00 Bohr mag/cell
     absolute magnetization    =     7.44 Bohr mag/cell

     iteration # 70     ecut=    70.00 Ry     beta= 0.10
     Davidson diagonalization with overlap

---- Real-time Memory Report at c_bands before calling an iterative solver
           212 MiB given to the printing process from OS
           128 MiB allocation reported by mallinfo(arena+hblkhd)
          7712 MiB available memory on the node where the printing process lives
------------------
     ethr =  8.76E-08,  avg # of iterations =  4.7

     =================== HUBBARD OCCUPATIONS ===================
     ------------------------ ATOM    1 ------------------------
     Tr[ns(  1)] (up, down, total) =   4.96250  1.32348  6.28598
     Atomic magnetic moment for atom   1 =   3.63902
     SPIN  1
     eigenvalues:
       0.986  0.986  0.997  0.997  0.997
     eigenvectors (columns):
       0.599 -0.799 -0.052  0.010  0.000
      -0.017 -0.040  0.534  0.616 -0.577
       0.043  0.005  0.266 -0.771 -0.577
      -0.799 -0.599 -0.010 -0.052  0.000
       0.026 -0.035  0.801 -0.155  0.577
     occupation matrix ns (before diag.):
       0.986 -0.000 -0.000  0.000 -0.000
      -0.000  0.997  0.000 -0.000 -0.000
      -0.000  0.000  0.997  0.000 -0.000
       0.000 -0.000  0.000  0.986 -0.000
      -0.000 -0.000 -0.000 -0.000  0.997
     SPIN  2
     eigenvalues:
       0.033  0.034  0.034  0.611  0.611
     eigenvectors (columns):
      -0.000  0.042  0.010  0.682  0.730
      -0.577 -0.558  0.595 -0.010  0.034
      -0.577 -0.237 -0.781  0.035 -0.008
      -0.000  0.010 -0.042 -0.730  0.682
       0.577 -0.794 -0.185  0.024  0.026
     occupation matrix ns (before diag.):
       0.610  0.010  0.010  0.000  0.021
       0.010  0.034 -0.000  0.018  0.000
       0.010 -0.000  0.034 -0.018  0.000
       0.000  0.018 -0.018  0.610 -0.000
       0.021  0.000  0.000 -0.000  0.034
     ------------------------ ATOM    2 ------------------------
     Tr[ns(  2)] (up, down, total) =   1.32156  4.96302  6.28458
     Atomic magnetic moment for atom   2 =  -3.64147
     SPIN  1
     eigenvalues:
       0.034  0.034  0.034  0.610  0.610
     eigenvectors (columns):
      -0.000  0.032  0.002  0.593  0.805
      -0.577 -0.460  0.674 -0.011  0.024
      -0.577 -0.354 -0.735  0.026 -0.003
      -0.000  0.002 -0.032 -0.805  0.593
       0.577 -0.814 -0.061  0.016  0.021
     occupation matrix ns (before diag.):
       0.609  0.008  0.008  0.000  0.015
       0.008  0.034 -0.000  0.013  0.000
       0.008 -0.000  0.034 -0.013  0.000
       0.000  0.013 -0.013  0.609 -0.000
       0.015  0.000  0.000 -0.000  0.034
     SPIN  2
     eigenvalues:
       0.986  0.986  0.997  0.997  0.997
     eigenvectors (columns):
       0.726  0.686 -0.050  0.009  0.000
      -0.010  0.040  0.525  0.624 -0.577
       0.040 -0.012  0.278 -0.766 -0.577
      -0.686  0.726 -0.009 -0.050  0.000
       0.030  0.028  0.803 -0.142  0.577
     occupation matrix ns (before diag.):
       0.986 -0.000 -0.000  0.000 -0.000
      -0.000  0.997  0.000 -0.000 -0.000
      -0.000  0.000  0.997  0.000 -0.000
       0.000 -0.000  0.000  0.986 -0.000
      -0.000 -0.000 -0.000 -0.000  0.997

     Number of occupied Hubbard levels =   12.5706

     negative rho (up, down):  2.306E-04 2.277E-04

     HUBBARD ENERGY =    0.2073  (Ry)

     total cpu time spent up to now is      515.5 secs

     total energy              =    -741.42096033 Ry
     estimated scf accuracy    <       0.00003460 Ry

     total magnetization       =    -0.00 Bohr mag/cell
     absolute magnetization    =     7.44 Bohr mag/cell

     iteration # 71     ecut=    70.00 Ry     beta= 0.10
     Davidson diagonalization with overlap

---- Real-time Memory Report at c_bands before calling an iterative solver
           212 MiB given to the printing process from OS
           128 MiB allocation reported by mallinfo(arena+hblkhd)
          7711 MiB available memory on the node where the printing process lives
------------------
     ethr =  7.86E-08,  avg # of iterations =  1.3

     =================== HUBBARD OCCUPATIONS ===================
     ------------------------ ATOM    1 ------------------------
     Tr[ns(  1)] (up, down, total) =   4.96252  1.32299  6.28551
     Atomic magnetic moment for atom   1 =   3.63953
     SPIN  1
     eigenvalues:
       0.986  0.986  0.997  0.997  0.997
     eigenvectors (columns):
       0.433 -0.900 -0.053  0.013  0.000
      -0.025 -0.037  0.559  0.594 -0.577
       0.045 -0.003  0.235 -0.781 -0.577
      -0.900 -0.433 -0.013 -0.053  0.000
       0.019 -0.040  0.794 -0.187  0.577
     occupation matrix ns (before diag.):
       0.986 -0.000 -0.000  0.000 -0.000
      -0.000  0.997  0.000 -0.000 -0.000
      -0.000  0.000  0.997  0.000 -0.000
       0.000 -0.000  0.000  0.986 -0.000
      -0.000 -0.000 -0.000 -0.000  0.997
     SPIN  2
     eigenvalues:
       0.033  0.034  0.034  0.611  0.611
     eigenvectors (columns):
      -0.000  0.046  0.004  0.480  0.876
      -0.577 -0.472  0.665 -0.020  0.033
      -0.577 -0.340 -0.741  0.038  0.001
      -0.000  0.004 -0.046 -0.876  0.480
       0.577 -0.812 -0.076  0.018  0.033
     occupation matrix ns (before diag.):
       0.610  0.011  0.011  0.000  0.022
       0.011  0.034 -0.001  0.019  0.001
       0.011 -0.001  0.034 -0.019  0.001
       0.000  0.019 -0.019  0.610 -0.000
       0.022  0.001  0.001 -0.000  0.034
     ------------------------ ATOM    2 ------------------------
     Tr[ns(  2)] (up, down, total) =   1.32168  4.96303  6.28471
     Atomic magnetic moment for atom   2 =  -3.64134
     SPIN  1
     eigenvalues:
       0.034  0.034  0.034  0.610  0.610
     eigenvectors (columns):
      -0.000  0.009  0.036  0.587  0.809
      -0.577 -0.783 -0.231 -0.012  0.027
      -0.577  0.591 -0.562  0.030 -0.003
      -0.000  0.036 -0.009 -0.809  0.587
       0.577 -0.191 -0.793  0.018  0.024
     occupation matrix ns (before diag.):
       0.609  0.009  0.009  0.000  0.017
       0.009  0.034 -0.000  0.015  0.000
       0.009 -0.000  0.034 -0.015  0.000
       0.000  0.015 -0.015  0.609 -0.000
       0.017  0.000  0.000 -0.000  0.034
     SPIN  2
     eigenvalues:
       0.986  0.986  0.997  0.997  0.997
     eigenvectors (columns):
      -0.631 -0.774 -0.052  0.005  0.000
       0.015 -0.040  0.476  0.662 -0.577
      -0.042  0.007  0.335 -0.743 -0.577
       0.774 -0.631 -0.005 -0.052  0.000
      -0.027 -0.033  0.811 -0.082  0.577
     occupation matrix ns (before diag.):
       0.986 -0.000 -0.000  0.000 -0.000
      -0.000  0.997  0.000 -0.000 -0.000
      -0.000  0.000  0.997  0.000 -0.000
       0.000 -0.000  0.000  0.986 -0.000
      -0.000 -0.000 -0.000 -0.000  0.997

     Number of occupied Hubbard levels =   12.5702

     negative rho (up, down):  2.303E-04 2.266E-04

     HUBBARD ENERGY =    0.2067  (Ry)

     total cpu time spent up to now is      522.3 secs

     total energy              =    -741.42096267 Ry
     estimated scf accuracy    <       0.00003554 Ry

     total magnetization       =    -0.00 Bohr mag/cell
     absolute magnetization    =     7.44 Bohr mag/cell

     iteration # 72     ecut=    70.00 Ry     beta= 0.10
     Davidson diagonalization with overlap

---- Real-time Memory Report at c_bands before calling an iterative solver
           212 MiB given to the printing process from OS
           128 MiB allocation reported by mallinfo(arena+hblkhd)
          7711 MiB available memory on the node where the printing process lives
------------------
     ethr =  7.86E-08,  avg # of iterations =  2.6

     =================== HUBBARD OCCUPATIONS ===================
     ------------------------ ATOM    1 ------------------------
     Tr[ns(  1)] (up, down, total) =   4.96240  1.32345  6.28585
     Atomic magnetic moment for atom   1 =   3.63894
     SPIN  1
     eigenvalues:
       0.986  0.986  0.997  0.997  0.997
     eigenvectors (columns):
       0.590 -0.806 -0.050  0.011  0.000
      -0.017 -0.038  0.546  0.605 -0.577
       0.041  0.005  0.251 -0.776 -0.577
      -0.806 -0.590 -0.011 -0.050  0.000
       0.025 -0.034  0.797 -0.170  0.577
     occupation matrix ns (before diag.):
       0.986 -0.000 -0.000  0.000 -0.000
      -0.000  0.997  0.000 -0.000 -0.000
      -0.000  0.000  0.997  0.000 -0.000
       0.000 -0.000  0.000  0.986 -0.000
      -0.000 -0.000 -0.000 -0.000  0.997
     SPIN  2
     eigenvalues:
       0.033  0.034  0.034  0.611  0.611
     eigenvectors (columns):
      -0.000 -0.020 -0.034  0.667  0.744
      -0.577  0.816 -0.006 -0.010  0.030
      -0.577 -0.403  0.709  0.031 -0.007
      -0.000 -0.034  0.020 -0.744  0.667
       0.577  0.413  0.704  0.021  0.024
     occupation matrix ns (before diag.):
       0.610  0.009  0.009  0.000  0.018
       0.009  0.034 -0.000  0.016  0.000
       0.009 -0.000  0.034 -0.016  0.000
       0.000  0.016 -0.016  0.610 -0.000
       0.018  0.000  0.000 -0.000  0.034
     ------------------------ ATOM    2 ------------------------
     Tr[ns(  2)] (up, down, total) =   1.32249  4.96299  6.28548
     Atomic magnetic moment for atom   2 =  -3.64049
     SPIN  1
     eigenvalues:
       0.034  0.034  0.034  0.610  0.610
     eigenvectors (columns):
      -0.000  0.023  0.012  0.417  0.908
      -0.577 -0.697  0.425 -0.012  0.017
      -0.577 -0.020 -0.816  0.021  0.002
      -0.000  0.012 -0.023 -0.908  0.417
       0.577 -0.717 -0.391  0.009  0.019
     occupation matrix ns (before diag.):
       0.610  0.006  0.006  0.000  0.012
       0.006  0.034 -0.000  0.011  0.000
       0.006 -0.000  0.034 -0.011  0.000
       0.000  0.011 -0.011  0.610 -0.000
       0.012  0.000  0.000 -0.000  0.034
     SPIN  2
     eigenvalues:
       0.986  0.986  0.997  0.997  0.997
     eigenvectors (columns):
      -0.653 -0.756 -0.047  0.007  0.000
       0.013 -0.037  0.502  0.643 -0.577
      -0.038  0.007  0.306 -0.756 -0.577
       0.756 -0.653 -0.007 -0.047  0.000
      -0.026 -0.030  0.808 -0.113  0.577
     occupation matrix ns (before diag.):
       0.986 -0.000 -0.000  0.000 -0.000
      -0.000  0.997  0.000 -0.000 -0.000
      -0.000  0.000  0.997  0.000 -0.000
       0.000 -0.000  0.000  0.986 -0.000
      -0.000 -0.000 -0.000 -0.000  0.997

     Number of occupied Hubbard levels =   12.5713

     negative rho (up, down):  2.291E-04 2.236E-04

     HUBBARD ENERGY =    0.2065  (Ry)

     total cpu time spent up to now is      530.1 secs

     total energy              =    -741.42069913 Ry
     estimated scf accuracy    <       0.00003991 Ry

     total magnetization       =    -0.00 Bohr mag/cell
     absolute magnetization    =     7.44 Bohr mag/cell

     iteration # 73     ecut=    70.00 Ry     beta= 0.10
     Davidson diagonalization with overlap

---- Real-time Memory Report at c_bands before calling an iterative solver
           212 MiB given to the printing process from OS
           128 MiB allocation reported by mallinfo(arena+hblkhd)
          7712 MiB available memory on the node where the printing process lives
------------------
     ethr =  7.86E-08,  avg # of iterations =  4.8

     =================== HUBBARD OCCUPATIONS ===================
     ------------------------ ATOM    1 ------------------------
     Tr[ns(  1)] (up, down, total) =   4.96224  1.32426  6.28651
     Atomic magnetic moment for atom   1 =   3.63798
     SPIN  1
     eigenvalues:
       0.986  0.986  0.997  0.997  0.997
     eigenvectors (columns):
       0.499 -0.864 -0.058  0.011  0.000
      -0.024 -0.042  0.533  0.616 -0.577
       0.048  0.000  0.267 -0.770 -0.577
      -0.864 -0.499 -0.011 -0.058  0.000
       0.024 -0.042  0.800 -0.154  0.577
     occupation matrix ns (before diag.):
       0.986 -0.000 -0.000  0.000 -0.001
      -0.000  0.997  0.000 -0.000 -0.000
      -0.000  0.000  0.997  0.000 -0.000
       0.000 -0.000  0.000  0.986 -0.000
      -0.001 -0.000 -0.000 -0.000  0.997
     SPIN  2
     eigenvalues:
       0.033  0.034  0.034  0.612  0.612
     eigenvectors (columns):
      -0.000 -0.020 -0.054  0.703  0.708
      -0.577  0.803  0.139 -0.012  0.045
      -0.577 -0.522  0.626  0.045 -0.012
      -0.000 -0.054  0.020 -0.708  0.703
       0.577  0.281  0.765  0.033  0.033
     occupation matrix ns (before diag.):
       0.610  0.013  0.013  0.000  0.027
       0.013  0.035 -0.001  0.023  0.001
       0.013 -0.001  0.035 -0.023  0.001
       0.000  0.023 -0.023  0.610 -0.000
       0.027  0.001  0.001 -0.000  0.035
     ------------------------ ATOM    2 ------------------------
     Tr[ns(  2)] (up, down, total) =   1.32081  4.96311  6.28392
     Atomic magnetic moment for atom   2 =  -3.64231
     SPIN  1
     eigenvalues:
       0.034  0.034  0.034  0.610  0.610
     eigenvectors (columns):
      -0.000  0.039  0.031  0.539  0.841
      -0.577 -0.762  0.292 -0.019  0.036
      -0.577  0.128 -0.805  0.041 -0.002
      -0.000  0.031 -0.039 -0.841  0.539
       0.577 -0.633 -0.514  0.022  0.034
     occupation matrix ns (before diag.):
       0.608  0.012  0.012  0.000  0.023
       0.012  0.035 -0.001  0.020  0.001
       0.012 -0.001  0.035 -0.020  0.001
       0.000  0.020 -0.020  0.608 -0.000
       0.023  0.001  0.001 -0.000  0.035
     SPIN  2
     eigenvalues:
       0.986  0.986  0.997  0.997  0.997
     eigenvectors (columns):
       0.601 -0.797 -0.056  0.010  0.000
      -0.018 -0.042  0.525  0.624 -0.577
       0.046  0.006  0.278 -0.766 -0.577
      -0.797 -0.601 -0.010 -0.056  0.000
       0.028 -0.037  0.803 -0.143  0.577
     occupation matrix ns (before diag.):
       0.986 -0.000 -0.000  0.000 -0.000
      -0.000  0.997  0.000 -0.000 -0.000
      -0.000  0.000  0.997  0.000 -0.000
       0.000 -0.000  0.000  0.986 -0.000
      -0.000 -0.000 -0.000 -0.000  0.997

     Number of occupied Hubbard levels =   12.5704

     negative rho (up, down):  2.280E-04 2.237E-04

     HUBBARD ENERGY =    0.2071  (Ry)

     total cpu time spent up to now is      540.1 secs

     total energy              =    -741.42093651 Ry
     estimated scf accuracy    <       0.00003866 Ry

     total magnetization       =    -0.01 Bohr mag/cell
     absolute magnetization    =     7.44 Bohr mag/cell

     iteration # 74     ecut=    70.00 Ry     beta= 0.10
     Davidson diagonalization with overlap

---- Real-time Memory Report at c_bands before calling an iterative solver
           212 MiB given to the printing process from OS
           128 MiB allocation reported by mallinfo(arena+hblkhd)
          7712 MiB available memory on the node where the printing process lives
------------------
     ethr =  7.86E-08,  avg # of iterations =  1.0

     =================== HUBBARD OCCUPATIONS ===================
     ------------------------ ATOM    1 ------------------------
     Tr[ns(  1)] (up, down, total) =   4.96232  1.32452  6.28684
     Atomic magnetic moment for atom   1 =   3.63780
     SPIN  1
     eigenvalues:
       0.986  0.986  0.997  0.997  0.997
     eigenvectors (columns):
       0.402  0.914 -0.057  0.013  0.000
      -0.028  0.039  0.553  0.598 -0.577
       0.048  0.005  0.241 -0.779 -0.577
      -0.914  0.402 -0.013 -0.057  0.000
       0.019  0.044  0.795 -0.180  0.577
     occupation matrix ns (before diag.):
       0.986 -0.000 -0.000  0.000 -0.001
      -0.000  0.997  0.000 -0.000 -0.000
      -0.000  0.000  0.997  0.000 -0.000
       0.000 -0.000  0.000  0.986 -0.000
      -0.001 -0.000 -0.000 -0.000  0.997
     SPIN  2
     eigenvalues:
       0.033  0.034  0.034  0.612  0.612
     eigenvectors (columns):
      -0.000  0.052  0.021  0.668  0.742
      -0.577 -0.639  0.507 -0.014  0.044
      -0.577 -0.119 -0.806  0.045 -0.010
      -0.000  0.021 -0.052 -0.742  0.668
       0.577 -0.758 -0.300  0.031  0.034
     occupation matrix ns (before diag.):
       0.610  0.013  0.013  0.000  0.026
       0.013  0.035 -0.001  0.023  0.001
       0.013 -0.001  0.035 -0.023  0.001
       0.000  0.023 -0.023  0.610 -0.000
       0.026  0.001  0.001 -0.000  0.035
     ------------------------ ATOM    2 ------------------------
     Tr[ns(  2)] (up, down, total) =   1.32113  4.96302  6.28415
     Atomic magnetic moment for atom   2 =  -3.64188
     SPIN  1
     eigenvalues:
       0.034  0.034  0.034  0.610  0.610
     eigenvectors (columns):
      -0.000  0.048  0.002  0.441  0.896
      -0.577 -0.441  0.686 -0.022  0.033
      -0.577 -0.374 -0.725  0.040  0.003
      -0.000  0.002 -0.048 -0.896  0.441
       0.577 -0.815 -0.039  0.017  0.036
     occupation matrix ns (before diag.):
       0.609  0.011  0.011  0.000  0.023
       0.011  0.035 -0.001  0.020  0.001
       0.011 -0.001  0.035 -0.020  0.001
       0.000  0.020 -0.020  0.609 -0.000
       0.023  0.001  0.001 -0.000  0.035
     SPIN  2
     eigenvalues:
       0.986  0.986  0.997  0.997  0.997
     eigenvectors (columns):
       0.644 -0.763 -0.056  0.009  0.000
      -0.016 -0.043  0.516  0.631 -0.577
       0.045  0.008  0.288 -0.763 -0.577
      -0.763 -0.644 -0.009 -0.056  0.000
       0.030 -0.035  0.804 -0.132  0.577
     occupation matrix ns (before diag.):
       0.986 -0.000 -0.000  0.000 -0.000
      -0.000  0.997  0.000 -0.000 -0.000
      -0.000  0.000  0.997  0.000 -0.000
       0.000 -0.000  0.000  0.986 -0.000
      -0.000 -0.000 -0.000 -0.000  0.997

     Number of occupied Hubbard levels =   12.5710

     negative rho (up, down):  2.274E-04 2.243E-04

     HUBBARD ENERGY =    0.2072  (Ry)

     total cpu time spent up to now is      547.1 secs

     total energy              =    -741.42096373 Ry
     estimated scf accuracy    <       0.00003345 Ry

     total magnetization       =    -0.01 Bohr mag/cell
     absolute magnetization    =     7.44 Bohr mag/cell

     iteration # 75     ecut=    70.00 Ry     beta= 0.10
     Davidson diagonalization with overlap

---- Real-time Memory Report at c_bands before calling an iterative solver
           212 MiB given to the printing process from OS
           128 MiB allocation reported by mallinfo(arena+hblkhd)
          7712 MiB available memory on the node where the printing process lives
------------------
     ethr =  7.60E-08,  avg # of iterations =  1.0

     =================== HUBBARD OCCUPATIONS ===================
     ------------------------ ATOM    1 ------------------------
     Tr[ns(  1)] (up, down, total) =   4.96249  1.32357  6.28605
     Atomic magnetic moment for atom   1 =   3.63892
     SPIN  1
     eigenvalues:
       0.986  0.986  0.997  0.997  0.997
     eigenvectors (columns):
       0.524 -0.850 -0.058  0.008  0.000
      -0.023 -0.042  0.494  0.648 -0.577
       0.048  0.001  0.314 -0.752 -0.577
      -0.850 -0.524 -0.008 -0.058  0.000
       0.025 -0.041  0.808 -0.104  0.577
     occupation matrix ns (before diag.):
       0.986 -0.000 -0.000  0.000 -0.001
      -0.000  0.997  0.000 -0.000 -0.000
      -0.000  0.000  0.997  0.000 -0.000
       0.000 -0.000  0.000  0.986 -0.000
      -0.001 -0.000 -0.000 -0.000  0.997
     SPIN  2
     eigenvalues:
       0.033  0.034  0.034  0.611  0.611
     eigenvectors (columns):
       0.000  0.056  0.005  0.330 -0.942
       0.577 -0.468  0.667 -0.030 -0.035
       0.577 -0.344 -0.739  0.045 -0.008
       0.000  0.005 -0.056 -0.942 -0.330
      -0.577 -0.812 -0.072  0.015 -0.043
     occupation matrix ns (before diag.):
       0.610  0.013  0.013  0.000  0.026
       0.013  0.035 -0.001  0.023  0.001
       0.013 -0.001  0.035 -0.023  0.001
       0.000  0.023 -0.023  0.610 -0.000
       0.026  0.001  0.001 -0.000  0.035
     ------------------------ ATOM    2 ------------------------
     Tr[ns(  2)] (up, down, total) =   1.32181  4.96297  6.28477
     Atomic magnetic moment for atom   2 =  -3.64116
     SPIN  1
     eigenvalues:
       0.034  0.034  0.034  0.610  0.610
     eigenvectors (columns):
       0.000  0.048  0.010  0.097 -0.994
       0.577 -0.549  0.603 -0.032 -0.023
       0.577 -0.247 -0.777  0.036 -0.016
       0.000  0.010 -0.048 -0.994 -0.097
      -0.577 -0.797 -0.174  0.004 -0.040
     occupation matrix ns (before diag.):
       0.609  0.011  0.011  0.000  0.023
       0.011  0.035 -0.001  0.020  0.001
       0.011 -0.001  0.035 -0.020  0.001
       0.000  0.020 -0.020  0.609 -0.000
       0.023  0.001  0.001 -0.000  0.035
     SPIN  2
     eigenvalues:
       0.986  0.986  0.997  0.997  0.997
     eigenvectors (columns):
       0.570 -0.820 -0.056  0.008  0.000
      -0.020 -0.042  0.502  0.642 -0.577
       0.046  0.004  0.305 -0.756 -0.577
      -0.820 -0.570 -0.008 -0.056  0.000
       0.026 -0.038  0.807 -0.114  0.577
     occupation matrix ns (before diag.):
       0.986 -0.000 -0.000  0.000 -0.000
      -0.000  0.997  0.000 -0.000 -0.000
      -0.000  0.000  0.997  0.000 -0.000
       0.000 -0.000  0.000  0.986 -0.000
      -0.000 -0.000 -0.000 -0.000  0.997

     Number of occupied Hubbard levels =   12.5708

     negative rho (up, down):  2.281E-04 2.238E-04

     HUBBARD ENERGY =    0.2071  (Ry)

     total cpu time spent up to now is      556.5 secs

     total energy              =    -741.42097014 Ry
     estimated scf accuracy    <       0.00003189 Ry

     total magnetization       =    -0.00 Bohr mag/cell
     absolute magnetization    =     7.44 Bohr mag/cell

     iteration # 76     ecut=    70.00 Ry     beta= 0.10
     Davidson diagonalization with overlap

---- Real-time Memory Report at c_bands before calling an iterative solver
           212 MiB given to the printing process from OS
           128 MiB allocation reported by mallinfo(arena+hblkhd)
          7620 MiB available memory on the node where the printing process lives
------------------
     ethr =  7.25E-08,  avg # of iterations =  1.0

     =================== HUBBARD OCCUPATIONS ===================
     ------------------------ ATOM    1 ------------------------
     Tr[ns(  1)] (up, down, total) =   4.96234  1.32430  6.28664
     Atomic magnetic moment for atom   1 =   3.63804
     SPIN  1
     eigenvalues:
       0.986  0.986  0.997  0.997  0.997
     eigenvectors (columns):
       0.527 -0.848 -0.058  0.009  0.000
      -0.023 -0.042  0.508  0.637 -0.577
       0.048  0.002  0.297 -0.759 -0.577
      -0.848 -0.527 -0.009 -0.058  0.000
       0.025 -0.041  0.806 -0.122  0.577
     occupation matrix ns (before diag.):
       0.986 -0.000 -0.000  0.000 -0.001
      -0.000  0.997  0.000 -0.000 -0.000
      -0.000  0.000  0.997  0.000 -0.000
       0.000 -0.000  0.000  0.986 -0.000
      -0.001 -0.000 -0.000 -0.000  0.997
     SPIN  2
     eigenvalues:
       0.033  0.034  0.034  0.612  0.612
     eigenvectors (columns):
       0.000 -0.023  0.051 -0.630 -0.774
       0.577  0.811 -0.081  0.016 -0.043
       0.577 -0.476 -0.662 -0.045  0.007
       0.000 -0.051 -0.023  0.774 -0.630
      -0.577  0.336 -0.743 -0.029 -0.035
     occupation matrix ns (before diag.):
       0.610  0.013  0.013  0.000  0.026
       0.013  0.035 -0.001  0.023  0.001
       0.013 -0.001  0.035 -0.023  0.001
       0.000  0.023 -0.023  0.610 -0.000
       0.026  0.001  0.001 -0.000  0.035
     ------------------------ ATOM    2 ------------------------
     Tr[ns(  2)] (up, down, total) =   1.32152  4.96300  6.28452
     Atomic magnetic moment for atom   2 =  -3.64149
     SPIN  1
     eigenvalues:
       0.034  0.034  0.034  0.610  0.610
     eigenvectors (columns):
      -0.000 -0.047 -0.010  0.492  0.869
      -0.577  0.550 -0.602 -0.020  0.034
      -0.577  0.246  0.778  0.039  0.000
      -0.000 -0.010  0.047 -0.869  0.492
       0.577  0.796  0.176  0.019  0.034
     occupation matrix ns (before diag.):
       0.609  0.011  0.011  0.000  0.023
       0.011  0.035 -0.001  0.020  0.001
       0.011 -0.001  0.035 -0.020  0.001
       0.000  0.020 -0.020  0.609 -0.000
       0.023  0.001  0.001 -0.000  0.035
     SPIN  2
     eigenvalues:
       0.986  0.986  0.997  0.997  0.997
     eigenvectors (columns):
      -0.720  0.691 -0.056  0.007  0.000
       0.011  0.045  0.498  0.646 -0.577
      -0.044 -0.013  0.310 -0.754 -0.577
       0.691  0.720 -0.007 -0.056  0.000
      -0.033  0.032  0.808 -0.108  0.577
     occupation matrix ns (before diag.):
       0.986 -0.000 -0.000  0.000 -0.000
      -0.000  0.997  0.000 -0.000 -0.000
      -0.000  0.000  0.997  0.000 -0.000
       0.000 -0.000  0.000  0.986 -0.000
      -0.000 -0.000 -0.000 -0.000  0.997

     Number of occupied Hubbard levels =   12.5712

     negative rho (up, down):  2.274E-04 2.216E-04

     HUBBARD ENERGY =    0.2059  (Ry)

     total cpu time spent up to now is      562.2 secs

     total energy              =    -741.42071066 Ry
     estimated scf accuracy    <       0.00003362 Ry

     total magnetization       =    -0.00 Bohr mag/cell
     absolute magnetization    =     7.44 Bohr mag/cell

     iteration # 77     ecut=    70.00 Ry     beta= 0.10
     Davidson diagonalization with overlap

---- Real-time Memory Report at c_bands before calling an iterative solver
           212 MiB given to the printing process from OS
           128 MiB allocation reported by mallinfo(arena+hblkhd)
          7710 MiB available memory on the node where the printing process lives
------------------
     ethr =  7.25E-08,  avg # of iterations =  5.2

     =================== HUBBARD OCCUPATIONS ===================
     ------------------------ ATOM    1 ------------------------
     Tr[ns(  1)] (up, down, total) =   4.96219  1.32592  6.28810
     Atomic magnetic moment for atom   1 =   3.63627
     SPIN  1
     eigenvalues:
       0.986  0.986  0.997  0.997  0.997
     eigenvectors (columns):
       0.608 -0.791 -0.065  0.011  0.000
      -0.021 -0.050  0.519  0.628 -0.577
       0.053  0.007  0.284 -0.764 -0.577
      -0.791 -0.608 -0.011 -0.065  0.000
       0.033 -0.043  0.803 -0.136  0.577
     occupation matrix ns (before diag.):
       0.986 -0.000 -0.000  0.000 -0.001
      -0.000  0.997  0.000 -0.001 -0.000
      -0.000  0.000  0.997  0.001 -0.000
       0.000 -0.001  0.001  0.986 -0.000
      -0.001 -0.000 -0.000 -0.000  0.997
     SPIN  2
     eigenvalues:
       0.033  0.033  0.033  0.613  0.613
     eigenvectors (columns):
      -0.000  0.072  0.007  0.225  0.972
      -0.577 -0.474  0.662 -0.043  0.040
      -0.577 -0.336 -0.742  0.057  0.017
      -0.000  0.007 -0.072 -0.972  0.225
       0.577 -0.810 -0.080  0.013  0.058
     occupation matrix ns (before diag.):
       0.610  0.017  0.017  0.000  0.034
       0.017  0.035 -0.001  0.030  0.001
       0.017 -0.001  0.035 -0.030  0.001
       0.000  0.030 -0.030  0.610 -0.000
       0.034  0.001  0.001 -0.000  0.035
     ------------------------ ATOM    2 ------------------------
     Tr[ns(  2)] (up, down, total) =   1.32147  4.96304  6.28451
     Atomic magnetic moment for atom   2 =  -3.64157
     SPIN  1
     eigenvalues:
       0.033  0.034  0.034  0.610  0.610
     eigenvectors (columns):
      -0.000  0.068  0.004  0.372  0.926
      -0.577 -0.451  0.678 -0.034  0.044
      -0.577 -0.362 -0.730  0.055  0.008
      -0.000  0.004 -0.068 -0.926  0.372
       0.577 -0.813 -0.051  0.021  0.052
     occupation matrix ns (before diag.):
       0.608  0.016  0.016  0.000  0.032
       0.016  0.035 -0.001  0.028  0.001
       0.016 -0.001  0.035 -0.028  0.001
       0.000  0.028 -0.028  0.608 -0.000
       0.032  0.001  0.001 -0.000  0.035
     SPIN  2
     eigenvalues:
       0.986  0.986  0.997  0.997  0.997
     eigenvectors (columns):
       0.505 -0.861 -0.063  0.008  0.000
      -0.026 -0.045  0.496  0.647 -0.577
       0.052  0.000  0.312 -0.753 -0.577
      -0.861 -0.505 -0.008 -0.063  0.000
       0.026 -0.045  0.808 -0.106  0.577
     occupation matrix ns (before diag.):
       0.986 -0.000 -0.000  0.000 -0.001
      -0.000  0.997  0.000 -0.000 -0.000
      -0.000  0.000  0.997  0.000 -0.000
       0.000 -0.000  0.000  0.986 -0.000
      -0.001 -0.000 -0.000 -0.000  0.997

     Number of occupied Hubbard levels =   12.5726

     negative rho (up, down):  2.284E-04 2.243E-04

     HUBBARD ENERGY =    0.2066  (Ry)

     total cpu time spent up to now is      570.7 secs

     total energy              =    -741.42088496 Ry
     estimated scf accuracy    <       0.00004016 Ry

     total magnetization       =    -0.01 Bohr mag/cell
     absolute magnetization    =     7.43 Bohr mag/cell

     iteration # 78     ecut=    70.00 Ry     beta= 0.10
     Davidson diagonalization with overlap

---- Real-time Memory Report at c_bands before calling an iterative solver
           212 MiB given to the printing process from OS
           128 MiB allocation reported by mallinfo(arena+hblkhd)
          7705 MiB available memory on the node where the printing process lives
------------------
     ethr =  7.25E-08,  avg # of iterations =  1.2

     =================== HUBBARD OCCUPATIONS ===================
     ------------------------ ATOM    1 ------------------------
     Tr[ns(  1)] (up, down, total) =   4.96243  1.32459  6.28702
     Atomic magnetic moment for atom   1 =   3.63784
     SPIN  1
     eigenvalues:
       0.986  0.986  0.997  0.997  0.997
     eigenvectors (columns):
       0.452 -0.889 -0.064  0.014  0.000
      -0.029 -0.045  0.549  0.602 -0.577
       0.054 -0.003  0.247 -0.776 -0.577
      -0.889 -0.452 -0.014 -0.064 -0.000
       0.024 -0.048  0.796 -0.174  0.577
     occupation matrix ns (before diag.):
       0.986 -0.000 -0.000  0.000 -0.001
      -0.000  0.997  0.000 -0.001 -0.000
      -0.000  0.000  0.997  0.001 -0.000
       0.000 -0.001  0.001  0.986 -0.000
      -0.001 -0.000 -0.000 -0.000  0.997
     SPIN  2
     eigenvalues:
       0.033  0.034  0.034  0.612  0.612
     eigenvectors (columns):
      -0.000  0.069  0.017  0.438  0.896
      -0.577 -0.561  0.590 -0.033  0.048
      -0.577 -0.230 -0.781  0.058  0.004
      -0.000  0.017 -0.069 -0.896  0.438
       0.577 -0.792 -0.191  0.026  0.052
     occupation matrix ns (before diag.):
       0.609  0.017  0.017  0.000  0.034
       0.017  0.035 -0.001  0.029  0.001
       0.017 -0.001  0.035 -0.029  0.001
       0.000  0.029 -0.029  0.609 -0.000
       0.034  0.001  0.001 -0.000  0.035
     ------------------------ ATOM    2 ------------------------
     Tr[ns(  2)] (up, down, total) =   1.32168  4.96305  6.28473
     Atomic magnetic moment for atom   2 =  -3.64137
     SPIN  1
     eigenvalues:
       0.033  0.034  0.034  0.610  0.610
     eigenvectors (columns):
      -0.000  0.068  0.009  0.453  0.889
      -0.577 -0.492  0.649 -0.031  0.047
      -0.577 -0.316 -0.751  0.056  0.003
      -0.000  0.009 -0.068 -0.889  0.453
       0.577 -0.808 -0.102  0.026  0.050
     occupation matrix ns (before diag.):
       0.608  0.016  0.016  0.000  0.032
       0.016  0.035 -0.001  0.028  0.001
       0.016 -0.001  0.035 -0.028  0.001
       0.000  0.028 -0.028  0.608 -0.000
       0.032  0.001  0.001 -0.000  0.035
     SPIN  2
     eigenvalues:
       0.986  0.986  0.997  0.997  0.997
     eigenvectors (columns):
       0.605 -0.794 -0.064  0.009  0.000
      -0.020 -0.048  0.506  0.639 -0.577
       0.052  0.007  0.300 -0.757 -0.577
      -0.794 -0.605 -0.009 -0.064  0.000
       0.032 -0.042  0.806 -0.119  0.577
     occupation matrix ns (before diag.):
       0.986 -0.000 -0.000  0.000 -0.001
      -0.000  0.997  0.000 -0.000 -0.000
      -0.000  0.000  0.997  0.000 -0.000
       0.000 -0.000  0.000  0.986 -0.000
      -0.001 -0.000 -0.000 -0.000  0.997

     Number of occupied Hubbard levels =   12.5717

     negative rho (up, down):  2.277E-04 2.237E-04

     HUBBARD ENERGY =    0.2068  (Ry)

     total cpu time spent up to now is      577.3 secs

     total energy              =    -741.42090108 Ry
     estimated scf accuracy    <       0.00003498 Ry

     total magnetization       =    -0.00 Bohr mag/cell
     absolute magnetization    =     7.44 Bohr mag/cell

     iteration # 79     ecut=    70.00 Ry     beta= 0.10
     Davidson diagonalization with overlap

---- Real-time Memory Report at c_bands before calling an iterative solver
           212 MiB given to the printing process from OS
           128 MiB allocation reported by mallinfo(arena+hblkhd)
          7705 MiB available memory on the node where the printing process lives
------------------
     ethr =  7.25E-08,  avg # of iterations =  2.2

     =================== HUBBARD OCCUPATIONS ===================
     ------------------------ ATOM    1 ------------------------
     Tr[ns(  1)] (up, down, total) =   4.96240  1.32363  6.28604
     Atomic magnetic moment for atom   1 =   3.63877
     SPIN  1
     eigenvalues:
       0.986  0.986  0.997  0.997  0.997
     eigenvectors (columns):
       0.344 -0.937  0.063  0.011 -0.000
      -0.034 -0.040 -0.524  0.624  0.577
       0.052 -0.009 -0.279 -0.766  0.577
      -0.937 -0.344  0.011 -0.063 -0.000
       0.018 -0.049 -0.802 -0.141 -0.577
     occupation matrix ns (before diag.):
       0.986 -0.000 -0.000  0.000 -0.001
      -0.000  0.997  0.000 -0.000 -0.000
      -0.000  0.000  0.997  0.000 -0.000
       0.000 -0.000  0.000  0.986 -0.000
      -0.001 -0.000 -0.000 -0.000  0.997
     SPIN  2
     eigenvalues:
       0.033  0.034  0.034  0.612  0.612
     eigenvectors (columns):
      -0.000 -0.011 -0.066  0.464  0.883
      -0.577  0.764  0.284 -0.029  0.046
      -0.577 -0.627  0.520  0.055  0.002
      -0.000 -0.066  0.011 -0.883  0.464
       0.577  0.136  0.803  0.025  0.048
     occupation matrix ns (before diag.):
       0.609  0.016  0.016  0.000  0.032
       0.016  0.035 -0.001  0.027  0.001
       0.016 -0.001  0.035 -0.027  0.001
       0.000  0.027 -0.027  0.609 -0.000
       0.032  0.001  0.001 -0.000  0.035
     ------------------------ ATOM    2 ------------------------
     Tr[ns(  2)] (up, down, total) =   1.32225  4.96301  6.28526
     Atomic magnetic moment for atom   2 =  -3.64076
     SPIN  1
     eigenvalues:
       0.033  0.034  0.034  0.611  0.611
     eigenvectors (columns):
      -0.000  0.062  0.007  0.573  0.817
      -0.577 -0.481  0.658 -0.022  0.046
      -0.577 -0.329 -0.746  0.051 -0.004
      -0.000  0.007 -0.062 -0.817  0.573
       0.577 -0.810 -0.088  0.029  0.042
     occupation matrix ns (before diag.):
       0.608  0.015  0.015  0.000  0.029
       0.015  0.035 -0.001  0.026  0.001
       0.015 -0.001  0.035 -0.026  0.001
       0.000  0.026 -0.026  0.608 -0.000
       0.029  0.001  0.001 -0.000  0.035
     SPIN  2
     eigenvalues:
       0.986  0.986  0.997  0.997  0.997
     eigenvectors (columns):
       0.513 -0.856 -0.061  0.012  0.000
      -0.025 -0.044  0.535  0.615 -0.577
       0.051  0.001  0.265 -0.771 -0.577
      -0.856 -0.513 -0.012 -0.061  0.000
       0.026 -0.044  0.800 -0.156  0.577
     occupation matrix ns (before diag.):
       0.986 -0.000 -0.000  0.000 -0.001
      -0.000  0.997  0.000 -0.000 -0.000
      -0.000  0.000  0.997  0.000 -0.000
       0.000 -0.000  0.000  0.986 -0.000
      -0.001 -0.000 -0.000 -0.000  0.997

     Number of occupied Hubbard levels =   12.5713

     negative rho (up, down):  2.281E-04 2.234E-04

     HUBBARD ENERGY =    0.2065  (Ry)

     total cpu time spent up to now is      582.6 secs

     total energy              =    -741.42089596 Ry
     estimated scf accuracy    <       0.00003772 Ry

     total magnetization       =    -0.00 Bohr mag/cell
     absolute magnetization    =     7.44 Bohr mag/cell

     iteration # 80     ecut=    70.00 Ry     beta= 0.10
     Davidson diagonalization with overlap

---- Real-time Memory Report at c_bands before calling an iterative solver
           212 MiB given to the printing process from OS
           128 MiB allocation reported by mallinfo(arena+hblkhd)
          7704 MiB available memory on the node where the printing process lives
------------------
     ethr =  7.25E-08,  avg # of iterations =  1.3

     =================== HUBBARD OCCUPATIONS ===================
     ------------------------ ATOM    1 ------------------------
     Tr[ns(  1)] (up, down, total) =   4.96233  1.32360  6.28593
     Atomic magnetic moment for atom   1 =   3.63873
     SPIN  1
     eigenvalues:
       0.986  0.986  0.997  0.997  0.997
     eigenvectors (columns):
       0.486 -0.871 -0.064  0.012  0.000
      -0.027 -0.046  0.532  0.617 -0.577
       0.053 -0.001  0.268 -0.769 -0.577
      -0.871 -0.486 -0.012 -0.064 -0.000
       0.026 -0.046  0.800 -0.153  0.577
     occupation matrix ns (before diag.):
       0.986 -0.000 -0.000  0.000 -0.001
      -0.000  0.997  0.000 -0.001 -0.000
      -0.000  0.000  0.997  0.001 -0.000
       0.000 -0.001  0.001  0.986 -0.000
      -0.001 -0.000 -0.000 -0.000  0.997
     SPIN  2
     eigenvalues:
       0.033  0.034  0.034  0.612  0.612
     eigenvectors (columns):
      -0.000 -0.069 -0.006  0.546  0.835
      -0.577  0.468 -0.667 -0.025  0.050
      -0.577  0.343  0.739  0.056 -0.003
      -0.000 -0.006  0.069 -0.835  0.546
       0.577  0.811  0.072  0.031  0.047
     occupation matrix ns (before diag.):
       0.609  0.016  0.016  0.000  0.032
       0.016  0.035 -0.001  0.028  0.001
       0.016 -0.001  0.035 -0.028  0.001
       0.000  0.028 -0.028  0.609 -0.000
       0.032  0.001  0.001 -0.000  0.035
     ------------------------ ATOM    2 ------------------------
     Tr[ns(  2)] (up, down, total) =   1.32270  4.96304  6.28574
     Atomic magnetic moment for atom   2 =  -3.64034
     SPIN  1
     eigenvalues:
       0.033  0.034  0.034  0.611  0.611
     eigenvectors (columns):
      -0.000  0.065  0.008  0.477  0.877
      -0.577 -0.487  0.653 -0.028  0.046
      -0.577 -0.322 -0.749  0.054  0.001
      -0.000  0.008 -0.065 -0.877  0.477
       0.577 -0.809 -0.096  0.026  0.047
     occupation matrix ns (before diag.):
       0.608  0.015  0.015  0.000  0.031
       0.015  0.035 -0.001  0.027  0.001
       0.015 -0.001  0.035 -0.027  0.001
       0.000  0.027 -0.027  0.608 -0.000
       0.031  0.001  0.001 -0.000  0.035
     SPIN  2
     eigenvalues:
       0.986  0.986  0.997  0.997  0.997
     eigenvectors (columns):
       0.629 -0.775 -0.063  0.008  0.000
      -0.018 -0.048  0.490  0.651 -0.577
       0.051  0.008  0.319 -0.750 -0.577
      -0.775 -0.629 -0.008 -0.063  0.000
       0.033 -0.040  0.809 -0.099  0.577
     occupation matrix ns (before diag.):
       0.986 -0.000 -0.000  0.000 -0.001
      -0.000  0.997  0.000 -0.000 -0.000
      -0.000  0.000  0.997  0.000 -0.000
       0.000 -0.000  0.000  0.986 -0.000
      -0.001 -0.000 -0.000 -0.000  0.997

     Number of occupied Hubbard levels =   12.5717

     negative rho (up, down):  2.272E-04 2.227E-04

     HUBBARD ENERGY =    0.2064  (Ry)

     total cpu time spent up to now is      587.6 secs

     total energy              =    -741.42088718 Ry
     estimated scf accuracy    <       0.00004129 Ry

     total magnetization       =    -0.00 Bohr mag/cell
     absolute magnetization    =     7.44 Bohr mag/cell

     iteration # 81     ecut=    70.00 Ry     beta= 0.10
     Davidson diagonalization with overlap

---- Real-time Memory Report at c_bands before calling an iterative solver
           212 MiB given to the printing process from OS
           128 MiB allocation reported by mallinfo(arena+hblkhd)
          7706 MiB available memory on the node where the printing process lives
------------------
     ethr =  7.25E-08,  avg # of iterations =  2.0

     =================== HUBBARD OCCUPATIONS ===================
     ------------------------ ATOM    1 ------------------------
     Tr[ns(  1)] (up, down, total) =   4.96232  1.32470  6.28702
     Atomic magnetic moment for atom   1 =   3.63762
     SPIN  1
     eigenvalues:
       0.986  0.986  0.997  0.997  0.997
     eigenvectors (columns):
       0.592 -0.804 -0.062  0.009  0.000
      -0.020 -0.047  0.506  0.639 -0.577
       0.051  0.006  0.300 -0.758 -0.577
      -0.804 -0.592 -0.009 -0.062  0.000
       0.030 -0.041  0.806 -0.119  0.577
     occupation matrix ns (before diag.):
       0.986 -0.000 -0.000  0.000 -0.001
      -0.000  0.997  0.000 -0.000 -0.000
      -0.000  0.000  0.997  0.000 -0.000
       0.000 -0.000  0.000  0.986 -0.000
      -0.001 -0.000 -0.000 -0.000  0.997
     SPIN  2
     eigenvalues:
       0.033  0.034  0.034  0.612  0.612
     eigenvectors (columns):
       0.000 -0.033 -0.054  0.380 -0.923
       0.577  0.815 -0.022 -0.032 -0.041
       0.577 -0.388  0.716  0.052 -0.007
       0.000 -0.054  0.033 -0.923 -0.380
      -0.577  0.426  0.695  0.020 -0.048
     occupation matrix ns (before diag.):
       0.610  0.015  0.015  0.000  0.030
       0.015  0.035 -0.001  0.026  0.001
       0.015 -0.001  0.035 -0.026  0.001
       0.000  0.026 -0.026  0.610 -0.000
       0.030  0.001  0.001 -0.000  0.035
     ------------------------ ATOM    2 ------------------------
     Tr[ns(  2)] (up, down, total) =   1.32226  4.96299  6.28525
     Atomic magnetic moment for atom   2 =  -3.64073
     SPIN  1
     eigenvalues:
       0.033  0.034  0.034  0.611  0.611
     eigenvectors (columns):
      -0.000  0.059  0.003  0.510  0.858
      -0.577 -0.442  0.685 -0.023  0.042
      -0.577 -0.373 -0.725  0.048 -0.001
      -0.000  0.003 -0.059 -0.858  0.510
       0.577 -0.814 -0.040  0.025  0.041
     occupation matrix ns (before diag.):
       0.609  0.014  0.014  0.000  0.028
       0.014  0.035 -0.001  0.024  0.001
       0.014 -0.001  0.035 -0.024  0.001
       0.000  0.024 -0.024  0.609 -0.000
       0.028  0.001  0.001 -0.000  0.035
     SPIN  2
     eigenvalues:
       0.986  0.986  0.997  0.997  0.997
     eigenvectors (columns):
       0.519 -0.852 -0.060  0.010  0.000
      -0.024 -0.043  0.517  0.630 -0.577
       0.049  0.001  0.288 -0.763 -0.577
      -0.852 -0.519 -0.010 -0.060  0.000
       0.026 -0.042  0.804 -0.132  0.577
     occupation matrix ns (before diag.):
       0.986 -0.000 -0.000  0.000 -0.001
      -0.000  0.997  0.000 -0.000 -0.000
      -0.000  0.000  0.997  0.000 -0.000
       0.000 -0.000  0.000  0.986 -0.000
      -0.001 -0.000 -0.000 -0.000  0.997

     Number of occupied Hubbard levels =   12.5723

     negative rho (up, down):  2.277E-04 2.237E-04

     HUBBARD ENERGY =    0.2065  (Ry)

     total cpu time spent up to now is      593.2 secs

     total energy              =    -741.42093519 Ry
     estimated scf accuracy    <       0.00003255 Ry

     total magnetization       =    -0.00 Bohr mag/cell
     absolute magnetization    =     7.44 Bohr mag/cell

     iteration # 82     ecut=    70.00 Ry     beta= 0.10
     Davidson diagonalization with overlap

---- Real-time Memory Report at c_bands before calling an iterative solver
           212 MiB given to the printing process from OS
           128 MiB allocation reported by mallinfo(arena+hblkhd)
          7706 MiB available memory on the node where the printing process lives
------------------
     ethr =  7.25E-08,  avg # of iterations =  3.6

     =================== HUBBARD OCCUPATIONS ===================
     ------------------------ ATOM    1 ------------------------
     Tr[ns(  1)] (up, down, total) =   4.96238  1.32479  6.28717
     Atomic magnetic moment for atom   1 =   3.63758
     SPIN  1
     eigenvalues:
       0.986  0.986  0.997  0.997  0.997
     eigenvectors (columns):
       0.602 -0.796 -0.058  0.010  0.000
      -0.019 -0.044  0.517  0.630 -0.577
       0.048  0.006  0.287 -0.763 -0.577
      -0.796 -0.602 -0.010 -0.058  0.000
       0.029 -0.038  0.804 -0.133  0.577
     occupation matrix ns (before diag.):
       0.986 -0.000 -0.000  0.000 -0.001
      -0.000  0.997  0.000 -0.000 -0.000
      -0.000  0.000  0.997  0.000 -0.000
       0.000 -0.000  0.000  0.986 -0.000
      -0.001 -0.000 -0.000 -0.000  0.997
     SPIN  2
     eigenvalues:
       0.033  0.034  0.034  0.612  0.612
     eigenvectors (columns):
      -0.000  0.057  0.003  0.775 -0.629
      -0.577 -0.446  0.682 -0.007 -0.046
      -0.577 -0.368 -0.727  0.043  0.017
      -0.000  0.003 -0.057 -0.629 -0.775
       0.577 -0.814 -0.045  0.036 -0.029
     occupation matrix ns (before diag.):
       0.610  0.013  0.013  0.000  0.027
       0.013  0.035 -0.001  0.023  0.001
       0.013 -0.001  0.035 -0.023  0.001
       0.000  0.023 -0.023  0.610 -0.000
       0.027  0.001  0.001 -0.000  0.035
     ------------------------ ATOM    2 ------------------------
     Tr[ns(  2)] (up, down, total) =   1.32193  4.96298  6.28491
     Atomic magnetic moment for atom   2 =  -3.64105
     SPIN  1
     eigenvalues:
       0.034  0.034  0.034  0.610  0.610
     eigenvectors (columns):
      -0.000 -0.022  0.045 -0.508  0.860
      -0.577  0.813 -0.057  0.020  0.035
      -0.577 -0.456 -0.676 -0.041 -0.000
      -0.000 -0.045 -0.022  0.860  0.508
       0.577  0.357 -0.733 -0.021  0.035
     occupation matrix ns (before diag.):
       0.609  0.012  0.012  0.000  0.023
       0.012  0.035 -0.001  0.020  0.001
       0.012 -0.001  0.035 -0.020  0.001
       0.000  0.020 -0.020  0.609 -0.000
       0.023  0.001  0.001 -0.000  0.035
     SPIN  2
     eigenvalues:
       0.986  0.986  0.997  0.997  0.997
     eigenvectors (columns):
       0.500 -0.864 -0.056  0.011  0.000
      -0.023 -0.040  0.534  0.616 -0.577
       0.046  0.000  0.267 -0.770 -0.577
      -0.864 -0.500 -0.011 -0.056  0.000
       0.023 -0.040  0.800 -0.154  0.577
     occupation matrix ns (before diag.):
       0.986 -0.000 -0.000  0.000 -0.000
      -0.000  0.997  0.000 -0.000 -0.000
      -0.000  0.000  0.997  0.000 -0.000
       0.000 -0.000  0.000  0.986 -0.000
      -0.000 -0.000 -0.000 -0.000  0.997

     Number of occupied Hubbard levels =   12.5721

     negative rho (up, down):  2.280E-04 2.246E-04

     HUBBARD ENERGY =    0.2063  (Ry)

     total cpu time spent up to now is      599.9 secs

     total energy              =    -741.42095505 Ry
     estimated scf accuracy    <       0.00002897 Ry

     total magnetization       =    -0.00 Bohr mag/cell
     absolute magnetization    =     7.44 Bohr mag/cell

     iteration # 83     ecut=    70.00 Ry     beta= 0.10
     Davidson diagonalization with overlap

---- Real-time Memory Report at c_bands before calling an iterative solver
           212 MiB given to the printing process from OS
           128 MiB allocation reported by mallinfo(arena+hblkhd)
          7705 MiB available memory on the node where the printing process lives
------------------
     ethr =  6.58E-08,  avg # of iterations =  4.7

     =================== HUBBARD OCCUPATIONS ===================
     ------------------------ ATOM    1 ------------------------
     Tr[ns(  1)] (up, down, total) =   4.96241  1.32389  6.28629
     Atomic magnetic moment for atom   1 =   3.63852
     SPIN  1
     eigenvalues:
       0.986  0.986  0.997  0.997  0.997
     eigenvectors (columns):
       0.525 -0.849 -0.054  0.010  0.000
      -0.021 -0.039  0.532  0.617 -0.577
       0.045  0.001  0.269 -0.770 -0.577
      -0.849 -0.525 -0.010 -0.054  0.000
       0.024 -0.038  0.801 -0.152  0.577
     occupation matrix ns (before diag.):
       0.986 -0.000 -0.000  0.000 -0.000
      -0.000  0.997  0.000 -0.000 -0.000
      -0.000  0.000  0.997  0.000 -0.000
       0.000 -0.000  0.000  0.986 -0.000
      -0.000 -0.000 -0.000 -0.000  0.997
     SPIN  2
     eigenvalues:
       0.033  0.034  0.034  0.612  0.612
     eigenvectors (columns):
      -0.000  0.020  0.044  0.648  0.760
      -0.577 -0.812 -0.079 -0.013  0.037
      -0.577  0.474 -0.663  0.039 -0.007
      -0.000  0.044 -0.020 -0.760  0.648
       0.577 -0.337 -0.743  0.025  0.030
     occupation matrix ns (before diag.):
       0.610  0.011  0.011  0.000  0.023
       0.011  0.034 -0.001  0.020  0.001
       0.011 -0.001  0.034 -0.020  0.001
       0.000  0.020 -0.020  0.610 -0.000
       0.023  0.001  0.001 -0.000  0.034
     ------------------------ ATOM    2 ------------------------
     Tr[ns(  2)] (up, down, total) =   1.32328  4.96290  6.28619
     Atomic magnetic moment for atom   2 =  -3.63962
     SPIN  1
     eigenvalues:
       0.034  0.034  0.034  0.611  0.611
     eigenvectors (columns):
      -0.000 -0.017 -0.034  0.397  0.917
      -0.577  0.815  0.042 -0.018  0.025
      -0.577 -0.444  0.685  0.031  0.004
      -0.000 -0.034  0.017 -0.917  0.397
       0.577  0.371  0.727  0.012  0.028
     occupation matrix ns (before diag.):
       0.610  0.009  0.009  0.000  0.018
       0.009  0.034 -0.000  0.015  0.000
       0.009 -0.000  0.034 -0.015  0.000
       0.000  0.015 -0.015  0.610 -0.000
       0.018  0.000  0.000 -0.000  0.034
     SPIN  2
     eigenvalues:
       0.986  0.986  0.997  0.997  0.997
     eigenvectors (columns):
       0.594 -0.803 -0.051  0.010  0.000
      -0.017 -0.039  0.533  0.617 -0.577
       0.042  0.005  0.268 -0.770 -0.577
      -0.803 -0.594 -0.010 -0.051  0.000
       0.025 -0.034  0.801 -0.153  0.577
     occupation matrix ns (before diag.):
       0.986 -0.000 -0.000  0.000 -0.000
      -0.000  0.997  0.000 -0.000 -0.000
      -0.000  0.000  0.997  0.000 -0.000
       0.000 -0.000  0.000  0.986 -0.000
      -0.000 -0.000 -0.000 -0.000  0.997

     Number of occupied Hubbard levels =   12.5725

     negative rho (up, down):  2.275E-04 2.225E-04

     HUBBARD ENERGY =    0.2061  (Ry)

     total cpu time spent up to now is      607.7 secs

     total energy              =    -741.42082035 Ry
     estimated scf accuracy    <       0.00003385 Ry

     total magnetization       =    -0.00 Bohr mag/cell
     absolute magnetization    =     7.44 Bohr mag/cell

     iteration # 84     ecut=    70.00 Ry     beta= 0.10
     Davidson diagonalization with overlap

---- Real-time Memory Report at c_bands before calling an iterative solver
           212 MiB given to the printing process from OS
           128 MiB allocation reported by mallinfo(arena+hblkhd)
          7705 MiB available memory on the node where the printing process lives
------------------
     ethr =  6.58E-08,  avg # of iterations =  4.0

     =================== HUBBARD OCCUPATIONS ===================
     ------------------------ ATOM    1 ------------------------
     Tr[ns(  1)] (up, down, total) =   4.96224  1.32330  6.28554
     Atomic magnetic moment for atom   1 =   3.63895
     SPIN  1
     eigenvalues:
       0.986  0.986  0.997  0.997  0.997
     eigenvectors (columns):
       0.517 -0.854 -0.060  0.010  0.000
      -0.024 -0.044  0.515  0.632 -0.577
       0.050  0.001  0.289 -0.762 -0.577
      -0.854 -0.517 -0.010 -0.060  0.000
       0.026 -0.043  0.805 -0.130  0.577
     occupation matrix ns (before diag.):
       0.986 -0.000 -0.000  0.000 -0.001
      -0.000  0.997  0.000 -0.000 -0.000
      -0.000  0.000  0.997  0.000 -0.000
       0.000 -0.000  0.000  0.986 -0.000
      -0.001 -0.000 -0.000 -0.000  0.997
     SPIN  2
     eigenvalues:
       0.033  0.034  0.034  0.612  0.612
     eigenvectors (columns):
      -0.000  0.027  0.055  0.660  0.749
      -0.577 -0.814 -0.049 -0.016  0.047
      -0.577  0.449 -0.680  0.049 -0.010
      -0.000  0.055 -0.027 -0.749  0.660
       0.577 -0.365 -0.729  0.033  0.037
     occupation matrix ns (before diag.):
       0.609  0.014  0.014  0.000  0.029
       0.014  0.035 -0.001  0.025  0.001
       0.014 -0.001  0.035 -0.025  0.001
       0.000  0.025 -0.025  0.609 -0.000
       0.029  0.001  0.001 -0.000  0.035
     ------------------------ ATOM    2 ------------------------
     Tr[ns(  2)] (up, down, total) =   1.32410  4.96300  6.28709
     Atomic magnetic moment for atom   2 =  -3.63890
     SPIN  1
     eigenvalues:
       0.033  0.034  0.034  0.612  0.612
     eigenvectors (columns):
      -0.000 -0.051 -0.022  0.637  0.769
      -0.577  0.659 -0.480 -0.016  0.042
      -0.577  0.086  0.811  0.045 -0.008
      -0.000 -0.022  0.051 -0.769  0.637
       0.577  0.745  0.331  0.029  0.035
     occupation matrix ns (before diag.):
       0.610  0.013  0.013  0.000  0.026
       0.013  0.035 -0.001  0.023  0.001
       0.013 -0.001  0.035 -0.023  0.001
       0.000  0.023 -0.023  0.610 -0.000
       0.026  0.001  0.001 -0.000  0.035
     SPIN  2
     eigenvalues:
       0.986  0.986  0.997  0.997  0.997
     eigenvectors (columns):
       0.636 -0.769 -0.058  0.011  0.000
      -0.017 -0.045  0.528  0.621 -0.577
       0.047  0.008  0.273 -0.768 -0.577
      -0.769 -0.636 -0.011 -0.058  0.000
       0.031 -0.037  0.802 -0.147  0.577
     occupation matrix ns (before diag.):
       0.986 -0.000 -0.000  0.000 -0.001
      -0.000  0.997  0.000 -0.000 -0.000
      -0.000  0.000  0.997  0.000 -0.000
       0.000 -0.000  0.000  0.986 -0.000
      -0.001 -0.000 -0.000 -0.000  0.997

     Number of occupied Hubbard levels =   12.5726

     negative rho (up, down):  2.274E-04 2.231E-04

     HUBBARD ENERGY =    0.2063  (Ry)

     total cpu time spent up to now is      615.6 secs

     total energy              =    -741.42092215 Ry
     estimated scf accuracy    <       0.00005109 Ry

     total magnetization       =    -0.00 Bohr mag/cell
     absolute magnetization    =     7.44 Bohr mag/cell

     iteration # 85     ecut=    70.00 Ry     beta= 0.10
     Davidson diagonalization with overlap

---- Real-time Memory Report at c_bands before calling an iterative solver
           212 MiB given to the printing process from OS
           128 MiB allocation reported by mallinfo(arena+hblkhd)
          7706 MiB available memory on the node where the printing process lives
------------------
     ethr =  6.58E-08,  avg # of iterations =  1.1

     =================== HUBBARD OCCUPATIONS ===================
     ------------------------ ATOM    1 ------------------------
     Tr[ns(  1)] (up, down, total) =   4.96235  1.32371  6.28606
     Atomic magnetic moment for atom   1 =   3.63864
     SPIN  1
     eigenvalues:
       0.986  0.986  0.997  0.997  0.997
     eigenvectors (columns):
       0.492 -0.869 -0.060  0.010  0.000
      -0.025 -0.043  0.517  0.630 -0.577
       0.050 -0.000  0.287 -0.763 -0.577
      -0.869 -0.492 -0.010 -0.060  0.000
       0.024 -0.043  0.804 -0.133  0.577
     occupation matrix ns (before diag.):
       0.986 -0.000 -0.000  0.000 -0.001
      -0.000  0.997  0.000 -0.000 -0.000
      -0.000  0.000  0.997  0.000 -0.000
       0.000 -0.000  0.000  0.986 -0.000
      -0.001 -0.000 -0.000 -0.000  0.997
     SPIN  2
     eigenvalues:
       0.033  0.034  0.034  0.612  0.612
     eigenvectors (columns):
      -0.000  0.060  0.004  0.727  0.684
      -0.577 -0.455  0.676 -0.011  0.048
      -0.577 -0.359 -0.732  0.047 -0.014
      -0.000  0.004 -0.060 -0.684  0.727
       0.577 -0.813 -0.055  0.036  0.034
     occupation matrix ns (before diag.):
       0.610  0.014  0.014  0.000  0.029
       0.014  0.035 -0.001  0.025  0.001
       0.014 -0.001  0.035 -0.025  0.001
       0.000  0.025 -0.025  0.610 -0.000
       0.029  0.001  0.001 -0.000  0.035
     ------------------------ ATOM    2 ------------------------
     Tr[ns(  2)] (up, down, total) =   1.32270  4.96300  6.28569
     Atomic magnetic moment for atom   2 =  -3.64030
     SPIN  1
     eigenvalues:
       0.033  0.034  0.034  0.611  0.611
     eigenvectors (columns):
      -0.000  0.033  0.044  0.386  0.921
      -0.577 -0.810  0.095 -0.027  0.036
      -0.577  0.322 -0.749  0.045  0.006
      -0.000  0.044 -0.033 -0.921  0.386
       0.577 -0.487 -0.654  0.017  0.041
     occupation matrix ns (before diag.):
       0.609  0.013  0.013  0.000  0.026
       0.013  0.035 -0.001  0.022  0.001
       0.013 -0.001  0.035 -0.022  0.001
       0.000  0.022 -0.022  0.609 -0.000
       0.026  0.001  0.001 -0.000  0.035
     SPIN  2
     eigenvalues:
       0.986  0.986  0.997  0.997  0.997
     eigenvectors (columns):
       0.716 -0.695 -0.058  0.009  0.000
      -0.012 -0.046  0.509  0.636 -0.577
       0.046  0.013  0.296 -0.759 -0.577
      -0.695 -0.716 -0.009 -0.058  0.000
       0.034 -0.033  0.806 -0.123  0.577
     occupation matrix ns (before diag.):
       0.986 -0.000 -0.000  0.000 -0.001
      -0.000  0.997  0.000 -0.000 -0.000
      -0.000  0.000  0.997  0.000 -0.000
       0.000 -0.000  0.000  0.986 -0.000
      -0.001 -0.000 -0.000 -0.000  0.997

     Number of occupied Hubbard levels =   12.5718

     negative rho (up, down):  2.278E-04 2.229E-04

     HUBBARD ENERGY =    0.2064  (Ry)

     total cpu time spent up to now is      622.2 secs

     total energy              =    -741.42091828 Ry
     estimated scf accuracy    <       0.00003560 Ry

     total magnetization       =    -0.00 Bohr mag/cell
     absolute magnetization    =     7.44 Bohr mag/cell

     iteration # 86     ecut=    70.00 Ry     beta= 0.10
     Davidson diagonalization with overlap

---- Real-time Memory Report at c_bands before calling an iterative solver
           212 MiB given to the printing process from OS
           128 MiB allocation reported by mallinfo(arena+hblkhd)
          7706 MiB available memory on the node where the printing process lives
------------------
     ethr =  6.58E-08,  avg # of iterations =  1.0

     =================== HUBBARD OCCUPATIONS ===================
     ------------------------ ATOM    1 ------------------------
     Tr[ns(  1)] (up, down, total) =   4.96228  1.32399  6.28627
     Atomic magnetic moment for atom   1 =   3.63829
     SPIN  1
     eigenvalues:
       0.986  0.986  0.997  0.997  0.997
     eigenvectors (columns):
       0.625 -0.778 -0.060  0.010  0.000
      -0.018 -0.046  0.518  0.629 -0.577
       0.049  0.008  0.286 -0.763 -0.577
      -0.778 -0.625 -0.010 -0.060  0.000
       0.031 -0.039  0.804 -0.134  0.577
     occupation matrix ns (before diag.):
       0.986 -0.000 -0.000  0.000 -0.001
      -0.000  0.997  0.000 -0.000 -0.000
      -0.000  0.000  0.997  0.000 -0.000
       0.000 -0.000  0.000  0.986 -0.000
      -0.001 -0.000 -0.000 -0.000  0.997
     SPIN  2
     eigenvalues:
       0.033  0.034  0.034  0.612  0.612
     eigenvectors (columns):
       0.000 -0.060 -0.003  0.390 -0.919
       0.577  0.447 -0.681 -0.030 -0.039
       0.577  0.366  0.728  0.049 -0.006
       0.000 -0.003  0.060 -0.919 -0.390
      -0.577  0.814  0.047  0.019 -0.045
     occupation matrix ns (before diag.):
       0.610  0.014  0.014  0.000  0.028
       0.014  0.035 -0.001  0.025  0.001
       0.014 -0.001  0.035 -0.025  0.001
       0.000  0.025 -0.025  0.610 -0.000
       0.028  0.001  0.001 -0.000  0.035
     ------------------------ ATOM    2 ------------------------
     Tr[ns(  2)] (up, down, total) =   1.32255  4.96304  6.28559
     Atomic magnetic moment for atom   2 =  -3.64049
     SPIN  1
     eigenvalues:
       0.033  0.034  0.034  0.611  0.611
     eigenvectors (columns):
      -0.000 -0.054 -0.011  0.730 -0.682
      -0.577  0.543 -0.608 -0.010 -0.044
      -0.577  0.255  0.774  0.043  0.013
      -0.000 -0.011  0.054 -0.682 -0.730
       0.577  0.798  0.166  0.033 -0.031
     occupation matrix ns (before diag.):
       0.609  0.013  0.013  0.000  0.026
       0.013  0.035 -0.001  0.022  0.001
       0.013 -0.001  0.035 -0.022  0.001
       0.000  0.022 -0.022  0.609 -0.000
       0.026  0.001  0.001 -0.000  0.035
     SPIN  2
     eigenvalues:
       0.986  0.986  0.997  0.997  0.997
     eigenvectors (columns):
      -0.739 -0.671 -0.057  0.012  0.000
       0.010 -0.047  0.544  0.607 -0.577
      -0.046  0.015  0.253 -0.775 -0.577
       0.671 -0.739 -0.012 -0.057  0.000
      -0.035 -0.032  0.798 -0.168  0.577
     occupation matrix ns (before diag.):
       0.986 -0.000 -0.000  0.000 -0.001
      -0.000  0.997  0.000 -0.000 -0.000
      -0.000  0.000  0.997  0.000 -0.000
       0.000 -0.000  0.000  0.986 -0.000
      -0.001 -0.000 -0.000 -0.000  0.997

     Number of occupied Hubbard levels =   12.5719

     negative rho (up, down):  2.270E-04 2.248E-04

     HUBBARD ENERGY =    0.2056  (Ry)

     total cpu time spent up to now is      630.8 secs

     total energy              =    -741.42048197 Ry
     estimated scf accuracy    <       0.00003860 Ry

     total magnetization       =    -0.00 Bohr mag/cell
     absolute magnetization    =     7.44 Bohr mag/cell

     iteration # 87     ecut=    70.00 Ry     beta= 0.10
     Davidson diagonalization with overlap

---- Real-time Memory Report at c_bands before calling an iterative solver
           212 MiB given to the printing process from OS
           128 MiB allocation reported by mallinfo(arena+hblkhd)
          7707 MiB available memory on the node where the printing process lives
------------------
     ethr =  6.58E-08,  avg # of iterations =  5.4

     =================== HUBBARD OCCUPATIONS ===================
     ------------------------ ATOM    1 ------------------------
     Tr[ns(  1)] (up, down, total) =   4.96249  1.32352  6.28601
     Atomic magnetic moment for atom   1 =   3.63898
     SPIN  1
     eigenvalues:
       0.986  0.986  0.997  0.997  0.997
     eigenvectors (columns):
       0.468 -0.881 -0.070  0.010  0.000
      -0.031 -0.049  0.503  0.641 -0.577
       0.058 -0.002  0.304 -0.756 -0.577
      -0.881 -0.468 -0.010 -0.070 -0.000
       0.027 -0.051  0.806 -0.115  0.577
     occupation matrix ns (before diag.):
       0.986 -0.000 -0.000  0.000 -0.001
      -0.000  0.997  0.000 -0.001 -0.000
      -0.000  0.000  0.997  0.001 -0.000
       0.000 -0.001  0.001  0.986 -0.000
      -0.001 -0.000 -0.000 -0.000  0.997
     SPIN  2
     eigenvalues:
       0.033  0.034  0.034  0.612  0.612
     eigenvectors (columns):
       0.000  0.057  0.059  0.409 -0.909
       0.577 -0.790  0.196 -0.039 -0.055
       0.577  0.225 -0.782  0.067 -0.007
       0.000  0.059 -0.057 -0.909 -0.409
      -0.577 -0.565 -0.586  0.028 -0.062
     occupation matrix ns (before diag.):
       0.608  0.019  0.019  0.000  0.039
       0.019  0.036 -0.001  0.034  0.001
       0.019 -0.001  0.036 -0.034  0.001
       0.000  0.034 -0.034  0.608 -0.000
       0.039  0.001  0.001 -0.000  0.036
     ------------------------ ATOM    2 ------------------------
     Tr[ns(  2)] (up, down, total) =   1.32435  4.96270  6.28705
     Atomic magnetic moment for atom   2 =  -3.63835
     SPIN  1
     eigenvalues:
       0.033  0.034  0.034  0.612  0.612
     eigenvectors (columns):
      -0.000 -0.083 -0.012  0.398  0.914
      -0.577  0.504 -0.639 -0.041  0.055
      -0.577  0.301  0.756  0.068  0.008
      -0.000 -0.012  0.083 -0.914  0.398
       0.577  0.805  0.117  0.027  0.063
     occupation matrix ns (before diag.):
       0.608  0.020  0.020  0.000  0.040
       0.020  0.036 -0.001  0.034  0.001
       0.020 -0.001  0.036 -0.034  0.001
       0.000  0.034 -0.034  0.608 -0.000
       0.040  0.001  0.001 -0.000  0.036
     SPIN  2
     eigenvalues:
       0.986  0.986  0.997  0.997  0.997
     eigenvectors (columns):
       0.562 -0.824 -0.070  0.009  0.000
      -0.025 -0.052  0.490  0.651 -0.577
       0.057  0.004  0.318 -0.750 -0.577
      -0.824 -0.562 -0.009 -0.070 -0.000
       0.032 -0.048  0.808 -0.099  0.577
     occupation matrix ns (before diag.):
       0.986 -0.000 -0.000  0.000 -0.001
      -0.000  0.997  0.000 -0.001 -0.000
      -0.000  0.000  0.997  0.001 -0.000
       0.000 -0.001  0.001  0.986 -0.000
      -0.001 -0.000 -0.000 -0.000  0.997

     Number of occupied Hubbard levels =   12.5731

     negative rho (up, down):  2.281E-04 2.253E-04

     HUBBARD ENERGY =    0.2058  (Ry)

     total cpu time spent up to now is      641.6 secs

     total energy              =    -741.42080779 Ry
     estimated scf accuracy    <       0.00002989 Ry

     total magnetization       =     0.00 Bohr mag/cell
     absolute magnetization    =     7.43 Bohr mag/cell

     iteration # 88     ecut=    70.00 Ry     beta= 0.10
     Davidson diagonalization with overlap

---- Real-time Memory Report at c_bands before calling an iterative solver
           212 MiB given to the printing process from OS
           128 MiB allocation reported by mallinfo(arena+hblkhd)
          7701 MiB available memory on the node where the printing process lives
------------------
     ethr =  6.58E-08,  avg # of iterations =  1.4

     =================== HUBBARD OCCUPATIONS ===================
     ------------------------ ATOM    1 ------------------------
     Tr[ns(  1)] (up, down, total) =   4.96249  1.32423  6.28671
     Atomic magnetic moment for atom   1 =   3.63826
     SPIN  1
     eigenvalues:
       0.986  0.986  0.997  0.997  0.997
     eigenvectors (columns):
       0.365 -0.928  0.070  0.011 -0.000
      -0.036 -0.045 -0.517  0.630  0.577
       0.057 -0.009 -0.287 -0.762  0.577
      -0.928 -0.365  0.011 -0.070  0.000
       0.021 -0.054 -0.804 -0.132 -0.577
     occupation matrix ns (before diag.):
       0.986 -0.000 -0.000  0.000 -0.001
      -0.000  0.997  0.000 -0.001 -0.000
      -0.000  0.000  0.997  0.001 -0.000
       0.000 -0.001  0.001  0.986 -0.000
      -0.001 -0.000 -0.000 -0.000  0.997
     SPIN  2
     eigenvalues:
       0.033  0.034  0.034  0.612  0.612
     eigenvectors (columns):
      -0.000 -0.081 -0.006  0.591  0.803
      -0.577  0.457 -0.673 -0.027  0.061
      -0.577  0.355  0.732  0.066 -0.007
      -0.000 -0.006  0.081 -0.803  0.591
       0.577  0.812  0.059  0.040  0.054
     occupation matrix ns (before diag.):
       0.608  0.019  0.019  0.000  0.038
       0.019  0.036 -0.001  0.033  0.001
       0.019 -0.001  0.036 -0.033  0.001
       0.000  0.033 -0.033  0.608 -0.000
       0.038  0.001  0.001 -0.000  0.036
     ------------------------ ATOM    2 ------------------------
     Tr[ns(  2)] (up, down, total) =   1.32296  4.96282  6.28578
     Atomic magnetic moment for atom   2 =  -3.63986
     SPIN  1
     eigenvalues:
       0.033  0.034  0.034  0.611  0.611
     eigenvectors (columns):
      -0.000 -0.083 -0.005  0.543  0.836
      -0.577  0.447 -0.680 -0.031  0.061
      -0.577  0.365  0.727  0.068 -0.004
      -0.000 -0.005  0.083 -0.836  0.543
       0.577  0.812  0.048  0.037  0.057
     occupation matrix ns (before diag.):
       0.607  0.020  0.020  0.000  0.039
       0.020  0.036 -0.001  0.034  0.001
       0.020 -0.001  0.036 -0.034  0.001
       0.000  0.034 -0.034  0.607 -0.000
       0.039  0.001  0.001 -0.000  0.036
     SPIN  2
     eigenvalues:
       0.986  0.986  0.997  0.997  0.997
     eigenvectors (columns):
       0.518 -0.852 -0.069  0.013  0.000
      -0.028 -0.050  0.530  0.619 -0.577
       0.057  0.001  0.271 -0.768 -0.577
      -0.852 -0.518 -0.013 -0.069 -0.000
       0.030 -0.049  0.801 -0.150  0.577
     occupation matrix ns (before diag.):
       0.986 -0.000 -0.000  0.000 -0.001
      -0.000  0.997  0.000 -0.001 -0.000
      -0.000  0.000  0.997  0.001 -0.000
       0.000 -0.001  0.001  0.986 -0.000
      -0.001 -0.000 -0.000 -0.000  0.997

     Number of occupied Hubbard levels =   12.5725

     negative rho (up, down):  2.283E-04 2.261E-04

     HUBBARD ENERGY =    0.2058  (Ry)

     total cpu time spent up to now is      650.5 secs

     total energy              =    -741.42078196 Ry
     estimated scf accuracy    <       0.00002327 Ry

     total magnetization       =    -0.00 Bohr mag/cell
     absolute magnetization    =     7.44 Bohr mag/cell

     iteration # 89     ecut=    70.00 Ry     beta= 0.10
     Davidson diagonalization with overlap

---- Real-time Memory Report at c_bands before calling an iterative solver
           212 MiB given to the printing process from OS
           128 MiB allocation reported by mallinfo(arena+hblkhd)
          7705 MiB available memory on the node where the printing process lives
------------------
     ethr =  5.29E-08,  avg # of iterations =  2.1

     =================== HUBBARD OCCUPATIONS ===================
     ------------------------ ATOM    1 ------------------------
     Tr[ns(  1)] (up, down, total) =   4.96257  1.32383  6.28640
     Atomic magnetic moment for atom   1 =   3.63873
     SPIN  1
     eigenvalues:
       0.986  0.986  0.997  0.997  0.997
     eigenvectors (columns):
       0.484 -0.872 -0.071  0.011  0.000
      -0.030 -0.051  0.513  0.632 -0.577
       0.059 -0.001  0.291 -0.761 -0.577
      -0.872 -0.484 -0.011 -0.071 -0.000
       0.029 -0.052  0.804 -0.128  0.577
     occupation matrix ns (before diag.):
       0.986 -0.000 -0.000  0.000 -0.001
      -0.000  0.997  0.000 -0.001 -0.000
      -0.000  0.000  0.997  0.001 -0.000
       0.000 -0.001  0.001  0.986 -0.000
      -0.001 -0.000 -0.000 -0.000  0.997
     SPIN  2
     eigenvalues:
       0.033  0.034  0.034  0.612  0.612
     eigenvectors (columns):
       0.000 -0.017 -0.083  0.306 -0.948
       0.577  0.770  0.262 -0.047 -0.052
       0.577 -0.612  0.536  0.068 -0.015
       0.000 -0.083  0.017 -0.948 -0.306
      -0.577  0.158  0.798  0.021 -0.066
     occupation matrix ns (before diag.):
       0.608  0.020  0.020  0.000  0.040
       0.020  0.036 -0.002  0.035  0.002
       0.020 -0.002  0.036 -0.035  0.002
       0.000  0.035 -0.035  0.608 -0.000
       0.040  0.002  0.002 -0.000  0.036
     ------------------------ ATOM    2 ------------------------
     Tr[ns(  2)] (up, down, total) =   1.32301  4.96282  6.28583
     Atomic magnetic moment for atom   2 =  -3.63981
     SPIN  1
     eigenvalues:
       0.033  0.034  0.034  0.611  0.611
     eigenvectors (columns):
      -0.000 -0.088 -0.008  0.681  0.727
      -0.577  0.468 -0.665 -0.021  0.069
      -0.577  0.342  0.738  0.070 -0.016
      -0.000 -0.008  0.088 -0.727  0.681
       0.577  0.810  0.073  0.049  0.053
     occupation matrix ns (before diag.):
       0.607  0.021  0.021  0.000  0.042
       0.021  0.036 -0.002  0.036  0.002
       0.021 -0.002  0.036 -0.036  0.002
       0.000  0.036 -0.036  0.607 -0.000
       0.042  0.002  0.002 -0.000  0.036
     SPIN  2
     eigenvalues:
       0.986  0.986  0.997  0.997  0.997
     eigenvectors (columns):
       0.389 -0.918 -0.071  0.014  0.000
      -0.036 -0.047  0.532  0.617 -0.577
       0.059 -0.007  0.268 -0.769 -0.577
      -0.918 -0.389 -0.014 -0.071 -0.000
       0.023 -0.054  0.800 -0.152  0.577
     occupation matrix ns (before diag.):
       0.986 -0.000 -0.000  0.000 -0.001
      -0.000  0.997  0.000 -0.001 -0.000
      -0.000  0.000  0.997  0.001 -0.000
       0.000 -0.001  0.001  0.986 -0.000
      -0.001 -0.000 -0.000 -0.000  0.997

     Number of occupied Hubbard levels =   12.5722

     negative rho (up, down):  2.285E-04 2.258E-04

     HUBBARD ENERGY =    0.2060  (Ry)

     total cpu time spent up to now is      657.7 secs

     total energy              =    -741.42079313 Ry
     estimated scf accuracy    <       0.00002290 Ry

     total magnetization       =    -0.00 Bohr mag/cell
     absolute magnetization    =     7.44 Bohr mag/cell

     iteration # 90     ecut=    70.00 Ry     beta= 0.10
     Davidson diagonalization with overlap

---- Real-time Memory Report at c_bands before calling an iterative solver
           212 MiB given to the printing process from OS
           128 MiB allocation reported by mallinfo(arena+hblkhd)
          7705 MiB available memory on the node where the printing process lives
------------------
     ethr =  5.20E-08,  avg # of iterations =  1.8

     =================== HUBBARD OCCUPATIONS ===================
     ------------------------ ATOM    1 ------------------------
     Tr[ns(  1)] (up, down, total) =   4.96253  1.32415  6.28668
     Atomic magnetic moment for atom   1 =   3.63839
     SPIN  1
     eigenvalues:
       0.986  0.986  0.997  0.997  0.997
     eigenvectors (columns):
       0.656 -0.752 -0.069  0.009  0.000
      -0.019 -0.054  0.499  0.644 -0.577
       0.056  0.011  0.308 -0.754 -0.577
      -0.752 -0.656 -0.009 -0.069 -0.000
       0.038 -0.043  0.807 -0.110  0.577
     occupation matrix ns (before diag.):
       0.986 -0.000 -0.000  0.000 -0.001
      -0.000  0.997  0.000 -0.001 -0.000
      -0.000  0.000  0.997  0.001 -0.000
       0.000 -0.001  0.001  0.986 -0.000
      -0.001 -0.000 -0.000 -0.000  0.997
     SPIN  2
     eigenvalues:
       0.033  0.034  0.034  0.612  0.612
     eigenvectors (columns):
      -0.000 -0.003 -0.080  0.511  0.856
      -0.577  0.720  0.379 -0.032  0.057
      -0.577 -0.688  0.434  0.065 -0.001
      -0.000 -0.080  0.003 -0.856  0.511
       0.577  0.032  0.813  0.034  0.056
     occupation matrix ns (before diag.):
       0.608  0.019  0.019  0.000  0.038
       0.019  0.036 -0.001  0.033  0.001
       0.019 -0.001  0.036 -0.033  0.001
       0.000  0.033 -0.033  0.608 -0.000
       0.038  0.001  0.001 -0.000  0.036
     ------------------------ ATOM    2 ------------------------
     Tr[ns(  2)] (up, down, total) =   1.32244  4.96287  6.28531
     Atomic magnetic moment for atom   2 =  -3.64043
     SPIN  1
     eigenvalues:
       0.033  0.034  0.034  0.611  0.611
     eigenvectors (columns):
      -0.000 -0.082 -0.005  0.423  0.902
      -0.577  0.453 -0.676 -0.038  0.055
      -0.577  0.359  0.730  0.067  0.006
      -0.000 -0.005  0.082 -0.902  0.423
       0.577  0.812  0.054  0.028  0.061
     occupation matrix ns (before diag.):
       0.607  0.019  0.019  0.000  0.038
       0.019  0.036 -0.001  0.033  0.001
       0.019 -0.001  0.036 -0.033  0.001
       0.000  0.033 -0.033  0.607 -0.000
       0.038  0.001  0.001 -0.000  0.036
     SPIN  2
     eigenvalues:
       0.986  0.986  0.997  0.997  0.997
     eigenvectors (columns):
       0.558 -0.827 -0.068  0.016  0.000
      -0.025 -0.051  0.558  0.593 -0.577
       0.057  0.004  0.235 -0.780 -0.577
      -0.827 -0.558 -0.016 -0.068 -0.000
       0.032 -0.047  0.793 -0.187  0.577
     occupation matrix ns (before diag.):
       0.986 -0.000 -0.000  0.000 -0.001
      -0.000  0.997  0.000 -0.001 -0.000
      -0.000  0.000  0.997  0.001 -0.000
       0.000 -0.001  0.001  0.986 -0.000
      -0.001 -0.000 -0.000 -0.000  0.997

     Number of occupied Hubbard levels =   12.5720

     negative rho (up, down):  2.285E-04 2.256E-04

     HUBBARD ENERGY =    0.2053  (Ry)

     total cpu time spent up to now is      663.7 secs

     total energy              =    -741.42050240 Ry
     estimated scf accuracy    <       0.00002185 Ry

     total magnetization       =    -0.00 Bohr mag/cell
     absolute magnetization    =     7.44 Bohr mag/cell

     iteration # 91     ecut=    70.00 Ry     beta= 0.10
     Davidson diagonalization with overlap

---- Real-time Memory Report at c_bands before calling an iterative solver
           212 MiB given to the printing process from OS
           128 MiB allocation reported by mallinfo(arena+hblkhd)
          7706 MiB available memory on the node where the printing process lives
------------------
     ethr =  4.96E-08,  avg # of iterations =  6.7

     =================== HUBBARD OCCUPATIONS ===================
     ------------------------ ATOM    1 ------------------------
     Tr[ns(  1)] (up, down, total) =   4.96243  1.32177  6.28420
     Atomic magnetic moment for atom   1 =   3.64066
     SPIN  1
     eigenvalues:
       0.986  0.986  0.997  0.997  0.997
     eigenvectors (columns):
       0.678 -0.733 -0.058  0.008  0.000
      -0.014 -0.045  0.502  0.642 -0.577
       0.046  0.010  0.305 -0.756 -0.577
      -0.733 -0.678 -0.008 -0.058  0.000
       0.032 -0.035  0.807 -0.114  0.577
     occupation matrix ns (before diag.):
       0.986 -0.000 -0.000  0.000 -0.001
      -0.000  0.997  0.000 -0.000 -0.000
      -0.000  0.000  0.997  0.000 -0.000
       0.000 -0.000  0.000  0.986 -0.000
      -0.001 -0.000 -0.000 -0.000  0.997
     SPIN  2
     eigenvalues:
       0.033  0.034  0.034  0.611  0.611
     eigenvectors (columns):
      -0.000 -0.054 -0.016  0.664  0.746
      -0.577  0.591 -0.562 -0.014  0.043
      -0.577  0.191  0.792  0.045 -0.009
      -0.000 -0.016  0.054 -0.746  0.664
       0.577  0.782  0.231  0.030  0.034
     occupation matrix ns (before diag.):
       0.609  0.013  0.013  0.000  0.026
       0.013  0.035 -0.001  0.023  0.001
       0.013 -0.001  0.035 -0.023  0.001
       0.000  0.023 -0.023  0.609 -0.000
       0.026  0.001  0.001 -0.000  0.035
     ------------------------ ATOM    2 ------------------------
     Tr[ns(  2)] (up, down, total) =   1.32662  4.96275  6.28937
     Atomic magnetic moment for atom   2 =  -3.63613
     SPIN  1
     eigenvalues:
       0.033  0.034  0.034  0.613  0.613
     eigenvectors (columns):
      -0.000  0.048  0.003  0.530  0.846
      -0.577 -0.452  0.679 -0.018  0.035
      -0.577 -0.362 -0.731  0.039 -0.001
      -0.000  0.003 -0.048 -0.846  0.530
       0.577 -0.814 -0.052  0.021  0.033
     occupation matrix ns (before diag.):
       0.612  0.011  0.011  0.000  0.023
       0.011  0.035 -0.001  0.020  0.001
       0.011 -0.001  0.035 -0.020  0.001
       0.000  0.020 -0.020  0.612 -0.000
       0.023  0.001  0.001 -0.000  0.035
     SPIN  2
     eigenvalues:
       0.986  0.986  0.997  0.997  0.997
     eigenvectors (columns):
       0.519 -0.853 -0.055  0.008  0.000
      -0.022 -0.040  0.507  0.638 -0.577
       0.046  0.001  0.299 -0.758 -0.577
      -0.853 -0.519 -0.008 -0.055  0.000
       0.024 -0.039  0.806 -0.120  0.577
     occupation matrix ns (before diag.):
       0.986 -0.000 -0.000  0.000 -0.000
      -0.000  0.997  0.000 -0.000 -0.000
      -0.000  0.000  0.997  0.000 -0.000
       0.000 -0.000  0.000  0.986 -0.000
      -0.000 -0.000 -0.000 -0.000  0.997

     Number of occupied Hubbard levels =   12.5736

     negative rho (up, down):  2.259E-04 2.240E-04

     HUBBARD ENERGY =    0.2047  (Ry)

     total cpu time spent up to now is      672.1 secs

     total energy              =    -741.41945557 Ry
     estimated scf accuracy    <       0.00005140 Ry

     total magnetization       =     0.01 Bohr mag/cell
     absolute magnetization    =     7.43 Bohr mag/cell

     iteration # 92     ecut=    70.00 Ry     beta= 0.10
     Davidson diagonalization with overlap

---- Real-time Memory Report at c_bands before calling an iterative solver
           212 MiB given to the printing process from OS
           128 MiB allocation reported by mallinfo(arena+hblkhd)
          7705 MiB available memory on the node where the printing process lives
------------------
     ethr =  4.96E-08,  avg # of iterations =  7.9

     =================== HUBBARD OCCUPATIONS ===================
     ------------------------ ATOM    1 ------------------------
     Tr[ns(  1)] (up, down, total) =   4.96255  1.31967  6.28221
     Atomic magnetic moment for atom   1 =   3.64288
     SPIN  1
     eigenvalues:
       0.986  0.986  0.997  0.997  0.997
     eigenvectors (columns):
       0.359  0.930 -0.078  0.012  0.000
      -0.040  0.050  0.508  0.636 -0.577
       0.063  0.010  0.297 -0.758 -0.577
      -0.930  0.359 -0.012 -0.078 -0.000
       0.023  0.060  0.805 -0.121  0.577
     occupation matrix ns (before diag.):
       0.986 -0.000 -0.000  0.000 -0.001
      -0.000  0.997  0.000 -0.001 -0.000
      -0.000  0.000  0.997  0.001 -0.000
       0.000 -0.001  0.001  0.986 -0.000
      -0.001 -0.000 -0.000 -0.000  0.997
     SPIN  2
     eigenvalues:
       0.033  0.034  0.034  0.610  0.610
     eigenvectors (columns):
      -0.000 -0.098 -0.008  0.515  0.851
      -0.577  0.460 -0.670 -0.039  0.070
      -0.577  0.350  0.733  0.080 -0.002
      -0.000 -0.008  0.098 -0.851  0.515
       0.577  0.810  0.063  0.042  0.069
     occupation matrix ns (before diag.):
       0.604  0.023  0.023  0.000  0.046
       0.023  0.037 -0.002  0.040  0.002
       0.023 -0.002  0.037 -0.040  0.002
       0.000  0.040 -0.040  0.604 -0.000
       0.046  0.002  0.002 -0.000  0.037
     ------------------------ ATOM    2 ------------------------
     Tr[ns(  2)] (up, down, total) =   1.32995  4.96262  6.29257
     Atomic magnetic moment for atom   2 =  -3.63267
     SPIN  1
     eigenvalues:
       0.033  0.034  0.034  0.615  0.615
     eigenvectors (columns):
       0.000 -0.027 -0.102  0.210 -0.972
       0.577  0.785  0.209 -0.064 -0.058
       0.577 -0.573  0.575  0.082 -0.026
       0.000 -0.102  0.027 -0.972 -0.210
      -0.577  0.211  0.784  0.018 -0.084
     occupation matrix ns (before diag.):
       0.608  0.025  0.025  0.000  0.050
       0.025  0.038 -0.002  0.043  0.002
       0.025 -0.002  0.038 -0.043  0.002
       0.000  0.043 -0.043  0.608 -0.000
       0.050  0.002  0.002 -0.000  0.038
     SPIN  2
     eigenvalues:
       0.986  0.986  0.997  0.997  0.997
     eigenvectors (columns):
       0.384  0.920  0.079  0.011 -0.000
      -0.039  0.052 -0.499  0.643  0.577
       0.064  0.008 -0.307 -0.754  0.577
      -0.920  0.384  0.011 -0.079  0.000
       0.025  0.060 -0.806 -0.111 -0.577
     occupation matrix ns (before diag.):
       0.986 -0.000 -0.000  0.000 -0.001
      -0.000  0.997  0.000 -0.001 -0.000
      -0.000  0.000  0.997  0.001 -0.000
       0.000 -0.001  0.001  0.986 -0.000
      -0.001 -0.000 -0.000 -0.000  0.997

     Number of occupied Hubbard levels =   12.5748

     negative rho (up, down):  2.260E-04 2.239E-04

     HUBBARD ENERGY =    0.2046  (Ry)

     total cpu time spent up to now is      682.4 secs

     total energy              =    -741.42074048 Ry
     estimated scf accuracy    <       0.00009893 Ry

     total magnetization       =     0.01 Bohr mag/cell
     absolute magnetization    =     7.43 Bohr mag/cell

     iteration # 93     ecut=    70.00 Ry     beta= 0.10
     Davidson diagonalization with overlap

---- Real-time Memory Report at c_bands before calling an iterative solver
           212 MiB given to the printing process from OS
           128 MiB allocation reported by mallinfo(arena+hblkhd)
          7706 MiB available memory on the node where the printing process lives
------------------
     ethr =  4.96E-08,  avg # of iterations =  1.3

     =================== HUBBARD OCCUPATIONS ===================
     ------------------------ ATOM    1 ------------------------
     Tr[ns(  1)] (up, down, total) =   4.96252  1.31929  6.28181
     Atomic magnetic moment for atom   1 =   3.64323
     SPIN  1
     eigenvalues:
       0.986  0.986  0.997  0.997  0.997
     eigenvectors (columns):
       0.493 -0.867 -0.078  0.009  0.000
      -0.033 -0.056  0.486  0.653 -0.577
       0.064 -0.000  0.322 -0.748 -0.577
      -0.867 -0.493 -0.009 -0.078 -0.000
       0.032 -0.056  0.808 -0.095  0.577
     occupation matrix ns (before diag.):
       0.986 -0.000 -0.000  0.000 -0.001
      -0.000  0.997  0.000 -0.001 -0.000
      -0.000  0.000  0.997  0.001 -0.000
       0.000 -0.001  0.001  0.986 -0.000
      -0.001 -0.000 -0.000 -0.000  0.997
     SPIN  2
     eigenvalues:
       0.033  0.034  0.034  0.609  0.609
     eigenvectors (columns):
       0.000  0.084  0.052  0.354 -0.930
       0.577 -0.717  0.382 -0.051 -0.063
       0.577  0.028 -0.812  0.080 -0.013
       0.000  0.052 -0.084 -0.930 -0.354
      -0.577 -0.689 -0.430  0.029 -0.076
     occupation matrix ns (before diag.):
       0.604  0.023  0.023  0.000  0.046
       0.023  0.037 -0.002  0.040  0.002
       0.023 -0.002  0.037 -0.040  0.002
       0.000  0.040 -0.040  0.604 -0.000
       0.046  0.002  0.002 -0.000  0.037
     ------------------------ ATOM    2 ------------------------
     Tr[ns(  2)] (up, down, total) =   1.33046  4.96264  6.29310
     Atomic magnetic moment for atom   2 =  -3.63218
     SPIN  1
     eigenvalues:
       0.033  0.034  0.034  0.615  0.615
     eigenvectors (columns):
      -0.000 -0.107 -0.006  0.273  0.956
      -0.577  0.442 -0.681 -0.061  0.063
      -0.577  0.369  0.723  0.085  0.021
      -0.000 -0.006  0.107 -0.956  0.273
       0.577  0.811  0.042  0.024  0.084
     occupation matrix ns (before diag.):
       0.608  0.025  0.025  0.000  0.050
       0.025  0.038 -0.002  0.044  0.002
       0.025 -0.002  0.038 -0.044  0.002
       0.000  0.044 -0.044  0.608 -0.000
       0.050  0.002  0.002 -0.000  0.038
     SPIN  2
     eigenvalues:
       0.986  0.986  0.997  0.997  0.997
     eigenvectors (columns):
       0.471 -0.878 -0.079  0.013  0.000
      -0.034 -0.056  0.517  0.628 -0.577
       0.065 -0.002  0.285 -0.762 -0.577
      -0.878 -0.471 -0.013 -0.079 -0.000
       0.031 -0.058  0.803 -0.134  0.577
     occupation matrix ns (before diag.):
       0.986 -0.000 -0.000  0.000 -0.001
      -0.000  0.997  0.000 -0.001 -0.000
      -0.000  0.000  0.997  0.001 -0.000
       0.000 -0.001  0.001  0.986 -0.000
      -0.001 -0.000 -0.000 -0.000  0.997

     Number of occupied Hubbard levels =   12.5749

     negative rho (up, down):  2.257E-04 2.245E-04

     HUBBARD ENERGY =    0.2048  (Ry)

     total cpu time spent up to now is      688.3 secs

     total energy              =    -741.42073939 Ry
     estimated scf accuracy    <       0.00011490 Ry

     total magnetization       =     0.01 Bohr mag/cell
     absolute magnetization    =     7.43 Bohr mag/cell

     iteration # 94     ecut=    70.00 Ry     beta= 0.10
     Davidson diagonalization with overlap

---- Real-time Memory Report at c_bands before calling an iterative solver
           212 MiB given to the printing process from OS
           128 MiB allocation reported by mallinfo(arena+hblkhd)
          7707 MiB available memory on the node where the printing process lives
------------------
     ethr =  4.96E-08,  avg # of iterations =  1.0

     =================== HUBBARD OCCUPATIONS ===================
     ------------------------ ATOM    1 ------------------------
     Tr[ns(  1)] (up, down, total) =   4.96258  1.32047  6.28304
     Atomic magnetic moment for atom   1 =   3.64211
     SPIN  1
     eigenvalues:
       0.986  0.986  0.997  0.997  0.997
     eigenvectors (columns):
       0.593 -0.801 -0.077  0.010  0.000
      -0.025 -0.058  0.492  0.648 -0.577
       0.063  0.007  0.315 -0.750 -0.577
      -0.801 -0.593 -0.010 -0.077 -0.000
       0.038 -0.051  0.808 -0.102  0.577
     occupation matrix ns (before diag.):
       0.986 -0.000 -0.000  0.000 -0.001
      -0.000  0.997  0.000 -0.001 -0.000
      -0.000  0.000  0.997  0.001 -0.000
       0.000 -0.001  0.001  0.986 -0.000
      -0.001 -0.000 -0.000 -0.000  0.997
     SPIN  2
     eigenvalues:
       0.033  0.034  0.034  0.610  0.610
     eigenvectors (columns):
       0.000 -0.097 -0.004  0.506 -0.857
       0.577  0.436 -0.686 -0.039 -0.069
       0.577  0.376  0.721  0.080  0.001
       0.000 -0.004  0.097 -0.857 -0.506
      -0.577  0.812  0.035  0.040 -0.068
     occupation matrix ns (before diag.):
       0.605  0.023  0.023  0.000  0.046
       0.023  0.037 -0.002  0.040  0.002
       0.023 -0.002  0.037 -0.040  0.002
       0.000  0.040 -0.040  0.605 -0.000
       0.046  0.002  0.002 -0.000  0.037
     ------------------------ ATOM    2 ------------------------
     Tr[ns(  2)] (up, down, total) =   1.32896  4.96254  6.29150
     Atomic magnetic moment for atom   2 =  -3.63358
     SPIN  1
     eigenvalues:
       0.033  0.034  0.034  0.614  0.614
     eigenvectors (columns):
      -0.000 -0.005 -0.105  0.347  0.932
      -0.577  0.721  0.374 -0.054  0.066
      -0.577 -0.684  0.438  0.084  0.014
      -0.000 -0.105  0.005 -0.932  0.347
       0.577  0.037  0.811  0.030  0.080
     occupation matrix ns (before diag.):
       0.608  0.025  0.025  0.000  0.049
       0.025  0.038 -0.002  0.043  0.002
       0.025 -0.002  0.038 -0.043  0.002
       0.000  0.043 -0.043  0.608 -0.000
       0.049  0.002  0.002 -0.000  0.038
     SPIN  2
     eigenvalues:
       0.986  0.986  0.997  0.997  0.997
     eigenvectors (columns):
       0.555 -0.828 -0.079  0.009  0.000
      -0.029 -0.058  0.481  0.657 -0.577
       0.065  0.004  0.328 -0.745 -0.577
      -0.828 -0.555 -0.009 -0.079 -0.000
       0.036 -0.054  0.809 -0.088  0.577
     occupation matrix ns (before diag.):
       0.986 -0.000 -0.000  0.000 -0.001
      -0.000  0.997  0.000 -0.001 -0.000
      -0.000  0.000  0.997  0.001 -0.000
       0.000 -0.001  0.001  0.986 -0.000
      -0.001 -0.000 -0.000 -0.000  0.997

     Number of occupied Hubbard levels =   12.5745

     negative rho (up, down):  2.250E-04 2.242E-04

     HUBBARD ENERGY =    0.2043  (Ry)

     total cpu time spent up to now is      694.5 secs

     total energy              =    -741.42063985 Ry
     estimated scf accuracy    <       0.00006668 Ry

     total magnetization       =     0.01 Bohr mag/cell
     absolute magnetization    =     7.43 Bohr mag/cell

     iteration # 95     ecut=    70.00 Ry     beta= 0.10
     Davidson diagonalization with overlap

---- Real-time Memory Report at c_bands before calling an iterative solver
           212 MiB given to the printing process from OS
           128 MiB allocation reported by mallinfo(arena+hblkhd)
          7707 MiB available memory on the node where the printing process lives
------------------
     ethr =  4.96E-08,  avg # of iterations =  4.6

     =================== HUBBARD OCCUPATIONS ===================
     ------------------------ ATOM    1 ------------------------
     Tr[ns(  1)] (up, down, total) =   4.96264  1.31922  6.28186
     Atomic magnetic moment for atom   1 =   3.64342
     SPIN  1
     eigenvalues:
       0.986  0.986  0.997  0.997  0.997
     eigenvectors (columns):
       0.542 -0.836 -0.081  0.015  0.000
      -0.031 -0.060  0.527  0.620 -0.577
       0.067  0.003  0.273 -0.767 -0.577
      -0.836 -0.542 -0.015 -0.081 -0.000
       0.037 -0.057  0.800 -0.147  0.577
     occupation matrix ns (before diag.):
       0.986 -0.000 -0.000  0.000 -0.001
      -0.000  0.997  0.000 -0.001 -0.000
      -0.000  0.000  0.997  0.001 -0.000
       0.000 -0.001  0.001  0.986 -0.000
      -0.001 -0.000 -0.000 -0.000  0.997
     SPIN  2
     eigenvalues:
       0.033  0.034  0.034  0.609  0.609
     eigenvectors (columns):
      -0.000 -0.107 -0.007  0.686  0.720
      -0.577  0.452 -0.674 -0.025  0.084
      -0.577  0.358  0.729  0.085 -0.021
      -0.000 -0.007  0.107 -0.720  0.686
       0.577  0.810  0.055  0.060  0.063
     occupation matrix ns (before diag.):
       0.603  0.025  0.025  0.000  0.050
       0.025  0.038 -0.002  0.043  0.002
       0.025 -0.002  0.038 -0.043  0.002
       0.000  0.043 -0.043  0.603 -0.000
       0.050  0.002  0.002 -0.000  0.038
     ------------------------ ATOM    2 ------------------------
     Tr[ns(  2)] (up, down, total) =   1.33051  4.96249  6.29300
     Atomic magnetic moment for atom   2 =  -3.63198
     SPIN  1
     eigenvalues:
       0.033  0.034  0.034  0.615  0.615
     eigenvectors (columns):
      -0.000  0.118  0.002  0.810 -0.575
      -0.577 -0.419  0.694 -0.009 -0.096
      -0.577 -0.391 -0.710  0.088  0.040
      -0.000  0.002 -0.118 -0.575 -0.810
       0.577 -0.811 -0.016  0.079 -0.056
     occupation matrix ns (before diag.):
       0.607  0.028  0.028  0.000  0.056
       0.028  0.039 -0.003  0.048  0.003
       0.028 -0.003  0.039 -0.048  0.003
       0.000  0.048 -0.048  0.607 -0.000
       0.056  0.003  0.003 -0.000  0.039
     SPIN  2
     eigenvalues:
       0.986  0.986  0.997  0.997  0.997
     eigenvectors (columns):
       0.597 -0.798 -0.084  0.010  0.000
      -0.027 -0.064  0.488  0.651 -0.577
       0.069  0.008  0.320 -0.748 -0.577
      -0.798 -0.597 -0.010 -0.084 -0.000
       0.042 -0.056  0.808 -0.097  0.577
     occupation matrix ns (before diag.):
       0.986 -0.000 -0.000  0.000 -0.001
      -0.000  0.997  0.000 -0.001 -0.000
      -0.000  0.000  0.997  0.001 -0.000
       0.000 -0.001  0.001  0.986 -0.000
      -0.001 -0.000 -0.000 -0.000  0.997

     Number of occupied Hubbard levels =   12.5749

     negative rho (up, down):  2.254E-04 2.259E-04

     HUBBARD ENERGY =    0.2046  (Ry)

     total cpu time spent up to now is      701.1 secs

     total energy              =    -741.42071249 Ry
     estimated scf accuracy    <       0.00009058 Ry

     total magnetization       =     0.01 Bohr mag/cell
     absolute magnetization    =     7.43 Bohr mag/cell

     iteration # 96     ecut=    70.00 Ry     beta= 0.10
     Davidson diagonalization with overlap

---- Real-time Memory Report at c_bands before calling an iterative solver
           212 MiB given to the printing process from OS
           128 MiB allocation reported by mallinfo(arena+hblkhd)
          7707 MiB available memory on the node where the printing process lives
------------------
     ethr =  4.96E-08,  avg # of iterations =  3.7

     =================== HUBBARD OCCUPATIONS ===================
     ------------------------ ATOM    1 ------------------------
     Tr[ns(  1)] (up, down, total) =   4.96263  1.31778  6.28041
     Atomic magnetic moment for atom   1 =   3.64485
     SPIN  1
     eigenvalues:
       0.986  0.986  0.997  0.997  0.997
     eigenvectors (columns):
       0.431 -0.899 -0.078  0.011  0.000
      -0.036 -0.053  0.503  0.640 -0.577
       0.064 -0.005  0.303 -0.756 -0.577
      -0.899 -0.431 -0.011 -0.078 -0.000
       0.028 -0.058  0.806 -0.116  0.577
     occupation matrix ns (before diag.):
       0.986 -0.000 -0.000  0.000 -0.001
      -0.000  0.997  0.000 -0.001 -0.000
      -0.000  0.000  0.997  0.001 -0.000
       0.000 -0.001  0.001  0.986 -0.000
      -0.001 -0.000 -0.000 -0.000  0.997
     SPIN  2
     eigenvalues:
       0.033  0.034  0.034  0.609  0.609
     eigenvectors (columns):
      -0.000 -0.038 -0.091  0.356  0.929
      -0.577  0.806  0.106 -0.051  0.063
      -0.577 -0.494  0.645  0.080  0.013
      -0.000 -0.091  0.038 -0.929  0.356
       0.577  0.311  0.751  0.029  0.075
     occupation matrix ns (before diag.):
       0.603  0.023  0.023  0.000  0.046
       0.023  0.037 -0.002  0.040  0.002
       0.023 -0.002  0.037 -0.040  0.002
       0.000  0.040 -0.040  0.603 -0.000
       0.046  0.002  0.002 -0.000  0.037
     ------------------------ ATOM    2 ------------------------
     Tr[ns(  2)] (up, down, total) =   1.33212  4.96231  6.29442
     Atomic magnetic moment for atom   2 =  -3.63019
     SPIN  1
     eigenvalues:
       0.033  0.034  0.034  0.616  0.616
     eigenvectors (columns):
      -0.000  0.106  0.008  0.659  0.744
      -0.577 -0.455  0.672 -0.028  0.083
      -0.577 -0.355 -0.730  0.085 -0.017
      -0.000  0.008 -0.106 -0.744  0.659
       0.577 -0.810 -0.058  0.058  0.065
     occupation matrix ns (before diag.):
       0.609  0.025  0.025  0.000  0.050
       0.025  0.038 -0.002  0.044  0.002
       0.025 -0.002  0.038 -0.044  0.002
       0.000  0.044 -0.044  0.609 -0.000
       0.050  0.002  0.002 -0.000  0.038
     SPIN  2
     eigenvalues:
       0.986  0.986  0.997  0.997  0.997
     eigenvectors (columns):
       0.539 -0.838 -0.080  0.009  0.000
      -0.030 -0.058  0.481  0.656 -0.577
       0.066  0.003  0.328 -0.745 -0.577
      -0.838 -0.539 -0.009 -0.080 -0.000
       0.036 -0.055  0.809 -0.088  0.577
     occupation matrix ns (before diag.):
       0.986 -0.000 -0.000  0.000 -0.001
      -0.000  0.997  0.000 -0.001 -0.000
      -0.000  0.000  0.997  0.001 -0.000
       0.000 -0.001  0.001  0.986 -0.000
      -0.001 -0.000 -0.000 -0.000  0.997

     Number of occupied Hubbard levels =   12.5748

     negative rho (up, down):  2.277E-04 2.278E-04

     HUBBARD ENERGY =    0.2060  (Ry)

     total cpu time spent up to now is      707.7 secs

     total energy              =    -741.41998647 Ry
     estimated scf accuracy    <       0.00010076 Ry

     total magnetization       =     0.02 Bohr mag/cell
     absolute magnetization    =     7.43 Bohr mag/cell

     iteration # 97     ecut=    70.00 Ry     beta= 0.10
     Davidson diagonalization with overlap

---- Real-time Memory Report at c_bands before calling an iterative solver
           212 MiB given to the printing process from OS
           128 MiB allocation reported by mallinfo(arena+hblkhd)
          7707 MiB available memory on the node where the printing process lives
------------------
     ethr =  4.96E-08,  avg # of iterations =  8.5

     =================== HUBBARD OCCUPATIONS ===================
     ------------------------ ATOM    1 ------------------------
     Tr[ns(  1)] (up, down, total) =   4.96262  1.31993  6.28255
     Atomic magnetic moment for atom   1 =   3.64269
     SPIN  1
     eigenvalues:
       0.986  0.986  0.997  0.997  0.997
     eigenvectors (columns):
       0.352  0.934 -0.060  0.011  0.000
      -0.032  0.039  0.530  0.619 -0.577
       0.049  0.008  0.271 -0.769 -0.577
      -0.934  0.352 -0.011 -0.060  0.000
       0.018  0.047  0.801 -0.149  0.577
     occupation matrix ns (before diag.):
       0.986 -0.000 -0.000  0.000 -0.001
      -0.000  0.997  0.000 -0.000 -0.000
      -0.000  0.000  0.997  0.000 -0.000
       0.000 -0.000  0.000  0.986 -0.000
      -0.001 -0.000 -0.000 -0.000  0.997
     SPIN  2
     eigenvalues:
       0.033  0.034  0.034  0.610  0.610
     eigenvectors (columns):
      -0.000  0.060  0.017  0.636  0.769
      -0.577 -0.585  0.567 -0.018  0.047
      -0.577 -0.198 -0.790  0.050 -0.008
      -0.000  0.017 -0.060 -0.769  0.636
       0.577 -0.784 -0.223  0.032  0.039
     occupation matrix ns (before diag.):
       0.607  0.015  0.015  0.000  0.029
       0.015  0.035 -0.001  0.025  0.001
       0.015 -0.001  0.035 -0.025  0.001
       0.000  0.025 -0.025  0.607 -0.000
       0.029  0.001  0.001 -0.000  0.035
     ------------------------ ATOM    2 ------------------------
     Tr[ns(  2)] (up, down, total) =   1.32743  4.96251  6.28994
     Atomic magnetic moment for atom   2 =  -3.63508
     SPIN  1
     eigenvalues:
       0.033  0.034  0.034  0.613  0.613
     eigenvectors (columns):
      -0.000  0.057  0.009  0.593  0.803
      -0.577 -0.510  0.636 -0.019  0.043
      -0.577 -0.295 -0.760  0.047 -0.005
      -0.000  0.009 -0.057 -0.803  0.593
       0.577 -0.806 -0.124  0.028  0.038
     occupation matrix ns (before diag.):
       0.611  0.014  0.014  0.000  0.027
       0.014  0.035 -0.001  0.024  0.001
       0.014 -0.001  0.035 -0.024  0.001
       0.000  0.024 -0.024  0.611 -0.000
       0.027  0.001  0.001 -0.000  0.035
     SPIN  2
     eigenvalues:
       0.986  0.986  0.997  0.997  0.997
     eigenvectors (columns):
       0.581 -0.812 -0.060  0.008  0.000
      -0.020 -0.045  0.499  0.644 -0.577
       0.049  0.005  0.308 -0.754 -0.577
      -0.812 -0.581 -0.008 -0.060  0.000
       0.029 -0.040  0.808 -0.110  0.577
     occupation matrix ns (before diag.):
       0.986 -0.000 -0.000  0.000 -0.001
      -0.000  0.997  0.000 -0.000 -0.000
      -0.000  0.000  0.997  0.000 -0.000
       0.000 -0.000  0.000  0.986 -0.000
      -0.001 -0.000 -0.000 -0.000  0.997

     Number of occupied Hubbard levels =   12.5725

     negative rho (up, down):  2.270E-04 2.261E-04

     HUBBARD ENERGY =    0.2055  (Ry)

     total cpu time spent up to now is      717.2 secs

     total energy              =    -741.42072755 Ry
     estimated scf accuracy    <       0.00003771 Ry

     total magnetization       =     0.01 Bohr mag/cell
     absolute magnetization    =     7.44 Bohr mag/cell

     iteration # 98     ecut=    70.00 Ry     beta= 0.10
     Davidson diagonalization with overlap

---- Real-time Memory Report at c_bands before calling an iterative solver
           212 MiB given to the printing process from OS
           128 MiB allocation reported by mallinfo(arena+hblkhd)
          7708 MiB available memory on the node where the printing process lives
------------------
     ethr =  4.96E-08,  avg # of iterations =  4.9

     =================== HUBBARD OCCUPATIONS ===================
     ------------------------ ATOM    1 ------------------------
     Tr[ns(  1)] (up, down, total) =   4.96249  1.32001  6.28250
     Atomic magnetic moment for atom   1 =   3.64249
     SPIN  1
     eigenvalues:
       0.986  0.986  0.997  0.997  0.997
     eigenvectors (columns):
       0.570 -0.819 -0.066  0.010  0.000
      -0.023 -0.049  0.507  0.637 -0.577
       0.054  0.005  0.298 -0.758 -0.577
      -0.819 -0.570 -0.010 -0.066  0.000
       0.031 -0.045  0.806 -0.121  0.577
     occupation matrix ns (before diag.):
       0.986 -0.000 -0.000  0.000 -0.001
      -0.000  0.997  0.000 -0.001 -0.000
      -0.000  0.000  0.997  0.001 -0.000
       0.000 -0.001  0.001  0.986 -0.000
      -0.001 -0.000 -0.000 -0.000  0.997
     SPIN  2
     eigenvalues:
       0.033  0.034  0.034  0.610  0.610
     eigenvectors (columns):
      -0.000 -0.017 -0.073  0.670  0.739
      -0.577  0.780  0.233 -0.019  0.058
      -0.577 -0.592  0.559  0.060 -0.013
      -0.000 -0.073  0.017 -0.739  0.670
       0.577  0.188  0.792  0.041  0.045
     occupation matrix ns (before diag.):
       0.607  0.018  0.018  0.000  0.035
       0.018  0.036 -0.001  0.030  0.001
       0.018 -0.001  0.036 -0.030  0.001
       0.000  0.030 -0.030  0.607 -0.000
       0.035  0.001  0.001 -0.000  0.036
     ------------------------ ATOM    2 ------------------------
     Tr[ns(  2)] (up, down, total) =   1.32848  4.96248  6.29096
     Atomic magnetic moment for atom   2 =  -3.63400
     SPIN  1
     eigenvalues:
       0.033  0.034  0.034  0.614  0.614
     eigenvectors (columns):
      -0.000 -0.025 -0.070  0.524  0.849
      -0.577  0.801  0.145 -0.029  0.054
      -0.577 -0.526  0.621  0.061 -0.002
      -0.000 -0.070  0.025 -0.849  0.524
       0.577  0.275  0.766  0.032  0.052
     occupation matrix ns (before diag.):
       0.611  0.018  0.018  0.000  0.035
       0.018  0.036 -0.001  0.030  0.001
       0.018 -0.001  0.036 -0.030  0.001
       0.000  0.030 -0.030  0.611 -0.000
       0.035  0.001  0.001 -0.000  0.036
     SPIN  2
     eigenvalues:
       0.986  0.986  0.997  0.997  0.997
     eigenvectors (columns):
       0.470 -0.880 -0.066  0.009  0.000
      -0.029 -0.046  0.495  0.647 -0.577
       0.054 -0.002  0.313 -0.752 -0.577
      -0.880 -0.470 -0.009 -0.066  0.000
       0.026 -0.048  0.808 -0.105  0.577
     occupation matrix ns (before diag.):
       0.986 -0.000 -0.000  0.000 -0.001
      -0.000  0.997  0.000 -0.001 -0.000
      -0.000  0.000  0.997  0.001 -0.000
       0.000 -0.001  0.001  0.986 -0.000
      -0.001 -0.000 -0.000 -0.000  0.997

     Number of occupied Hubbard levels =   12.5735

     negative rho (up, down):  2.281E-04 2.282E-04

     HUBBARD ENERGY =    0.2057  (Ry)

     total cpu time spent up to now is      728.0 secs

     total energy              =    -741.42081351 Ry
     estimated scf accuracy    <       0.00005424 Ry

     total magnetization       =     0.01 Bohr mag/cell
     absolute magnetization    =     7.43 Bohr mag/cell

     iteration # 99     ecut=    70.00 Ry     beta= 0.10
     Davidson diagonalization with overlap

---- Real-time Memory Report at c_bands before calling an iterative solver
           212 MiB given to the printing process from OS
           128 MiB allocation reported by mallinfo(arena+hblkhd)
          7709 MiB available memory on the node where the printing process lives
------------------
     ethr =  4.96E-08,  avg # of iterations =  2.8

     =================== HUBBARD OCCUPATIONS ===================
     ------------------------ ATOM    1 ------------------------
     Tr[ns(  1)] (up, down, total) =   4.96259  1.32223  6.28482
     Atomic magnetic moment for atom   1 =   3.64037
     SPIN  1
     eigenvalues:
       0.986  0.986  0.997  0.997  0.997
     eigenvectors (columns):
       0.526 -0.848 -0.067  0.018  0.000
      -0.027 -0.050  0.574  0.578 -0.577
       0.056  0.002  0.213 -0.786 -0.577
      -0.848 -0.526 -0.018 -0.067 -0.000
       0.030 -0.048  0.787 -0.208  0.577
     occupation matrix ns (before diag.):
       0.986 -0.000 -0.000  0.000 -0.001
      -0.000  0.997  0.000 -0.001 -0.000
      -0.000  0.000  0.997  0.001 -0.000
       0.000 -0.001  0.001  0.986 -0.000
      -0.001 -0.000 -0.000 -0.000  0.997
     SPIN  2
     eigenvalues:
       0.033  0.034  0.034  0.611  0.611
     eigenvectors (columns):
      -0.000 -0.063  0.048 -0.331  0.940
      -0.577  0.751  0.314  0.042  0.049
      -0.577 -0.104 -0.807 -0.064  0.012
      -0.000 -0.048 -0.063  0.940  0.331
       0.577  0.647 -0.493 -0.022  0.061
     occupation matrix ns (before diag.):
       0.607  0.019  0.019  0.000  0.037
       0.019  0.036 -0.001  0.032  0.001
       0.019 -0.001  0.036 -0.032  0.001
       0.000  0.032 -0.032  0.607 -0.000
       0.037  0.001  0.001 -0.000  0.036
     ------------------------ ATOM    2 ------------------------
     Tr[ns(  2)] (up, down, total) =   1.32558  4.96245  6.28803
     Atomic magnetic moment for atom   2 =  -3.63687
     SPIN  1
     eigenvalues:
       0.033  0.034  0.034  0.613  0.613
     eigenvectors (columns):
      -0.000 -0.025 -0.077  0.602  0.794
      -0.577  0.797  0.164 -0.026  0.061
      -0.577 -0.541  0.608  0.065 -0.008
      -0.000 -0.077  0.025 -0.794  0.602
       0.577  0.256  0.772  0.040  0.052
     occupation matrix ns (before diag.):
       0.609  0.019  0.019  0.000  0.038
       0.019  0.036 -0.001  0.033  0.001
       0.019 -0.001  0.036 -0.033  0.001
       0.000  0.033 -0.033  0.609 -0.000
       0.038  0.001  0.001 -0.000  0.036
     SPIN  2
     eigenvalues:
       0.986  0.986  0.997  0.997  0.997
     eigenvectors (columns):
       0.438 -0.897 -0.069  0.010  0.000
      -0.032 -0.047  0.501  0.642 -0.577
       0.056 -0.004  0.305 -0.755 -0.577
      -0.897 -0.438 -0.010 -0.069  0.000
       0.025 -0.051  0.807 -0.113  0.577
     occupation matrix ns (before diag.):
       0.986 -0.000 -0.000  0.000 -0.001
      -0.000  0.997  0.000 -0.001 -0.000
      -0.000  0.000  0.997  0.001 -0.000
       0.000 -0.001  0.001  0.986 -0.000
      -0.001 -0.000 -0.000 -0.000  0.997

     Number of occupied Hubbard levels =   12.5728

     negative rho (up, down):  2.289E-04 2.284E-04

     HUBBARD ENERGY =    0.2053  (Ry)

     total cpu time spent up to now is      736.3 secs

     total energy              =    -741.41990622 Ry
     estimated scf accuracy    <       0.00002044 Ry

     total magnetization       =     0.00 Bohr mag/cell
     absolute magnetization    =     7.43 Bohr mag/cell

     iteration #100     ecut=    70.00 Ry     beta= 0.10
     Davidson diagonalization with overlap

---- Real-time Memory Report at c_bands before calling an iterative solver
           212 MiB given to the printing process from OS
           128 MiB allocation reported by mallinfo(arena+hblkhd)
          7710 MiB available memory on the node where the printing process lives
------------------
     ethr =  4.64E-08,  avg # of iterations =  7.8

     =================== HUBBARD OCCUPATIONS ===================
     ------------------------ ATOM    1 ------------------------
     Tr[ns(  1)] (up, down, total) =   4.96251  1.31953  6.28204
     Atomic magnetic moment for atom   1 =   3.64299
     SPIN  1
     eigenvalues:
       0.986  0.986  0.997  0.997  0.997
     eigenvectors (columns):
      -0.615 -0.787 -0.050  0.007  0.000
       0.015 -0.038  0.502  0.643 -0.577
      -0.040  0.006  0.306 -0.756 -0.577
       0.787 -0.615 -0.007 -0.050  0.000
      -0.025 -0.032  0.808 -0.113  0.577
     occupation matrix ns (before diag.):
       0.986 -0.000 -0.000  0.000 -0.000
      -0.000  0.997  0.000 -0.000 -0.000
      -0.000  0.000  0.997  0.000 -0.000
       0.000 -0.000  0.000  0.986 -0.000
      -0.000 -0.000 -0.000 -0.000  0.997
     SPIN  2
     eigenvalues:
       0.033  0.034  0.034  0.609  0.609
     eigenvectors (columns):
      -0.000  0.039  0.005  0.676  0.736
      -0.577 -0.492  0.651 -0.010  0.031
      -0.577 -0.317 -0.752  0.031 -0.007
      -0.000  0.005 -0.039 -0.736  0.676
       0.577 -0.810 -0.101  0.022  0.024
     occupation matrix ns (before diag.):
       0.608  0.009  0.009  0.000  0.018
       0.009  0.034 -0.000  0.016  0.000
       0.009 -0.000  0.034 -0.016  0.000
       0.000  0.016 -0.016  0.608 -0.000
       0.018  0.000  0.000 -0.000  0.034
     ------------------------ ATOM    2 ------------------------
     Tr[ns(  2)] (up, down, total) =   1.32949  4.96241  6.29190
     Atomic magnetic moment for atom   2 =  -3.63292
     SPIN  1
     eigenvalues:
       0.034  0.034  0.034  0.614  0.614
     eigenvectors (columns):
      -0.000  0.005  0.025  0.451  0.892
      -0.577 -0.776 -0.252 -0.012  0.018
      -0.577  0.606 -0.546  0.021  0.001
      -0.000  0.025 -0.005 -0.892  0.451
       0.577 -0.170 -0.798  0.010  0.019
     occupation matrix ns (before diag.):
       0.614  0.006  0.006  0.000  0.012
       0.006  0.034 -0.000  0.011  0.000
       0.006 -0.000  0.034 -0.011  0.000
       0.000  0.011 -0.011  0.614 -0.000
       0.012  0.000  0.000 -0.000  0.034
     SPIN  2
     eigenvalues:
       0.986  0.986  0.997  0.997  0.997
     eigenvectors (columns):
      -0.689 -0.724 -0.046  0.008  0.000
       0.011 -0.037  0.528  0.622 -0.577
      -0.037  0.009  0.274 -0.768 -0.577
       0.724 -0.689 -0.008 -0.046  0.000
      -0.027 -0.028  0.802 -0.146  0.577
     occupation matrix ns (before diag.):
       0.986 -0.000 -0.000  0.000 -0.000
      -0.000  0.997  0.000 -0.000 -0.000
      -0.000  0.000  0.997  0.000 -0.000
       0.000 -0.000  0.000  0.986 -0.000
      -0.000 -0.000 -0.000 -0.000  0.997

     Number of occupied Hubbard levels =   12.5739

     negative rho (up, down):  2.256E-04 2.264E-04

     HUBBARD ENERGY =    0.2028  (Ry)

     total cpu time spent up to now is      747.5 secs

     total energy              =    -741.41420507 Ry
     estimated scf accuracy    <       0.00006273 Ry

     total magnetization       =     0.01 Bohr mag/cell
     absolute magnetization    =     7.43 Bohr mag/cell

     iteration #101     ecut=    70.00 Ry     beta= 0.10
     Davidson diagonalization with overlap

---- Real-time Memory Report at c_bands before calling an iterative solver
           212 MiB given to the printing process from OS
           128 MiB allocation reported by mallinfo(arena+hblkhd)
          7710 MiB available memory on the node where the printing process lives
------------------
     c_bands:  1 eigenvalues not converged
