
     Program PWSCF v.7.5 starts on 25Jul2026 at 15:42: 0 

     This program is part of the open-source Quantum ESPRESSO suite
     for quantum simulation of materials; please cite
         "P. Giannozzi et al., J. Phys.:Condens. Matter 21 395502 (2009);
         "P. Giannozzi et al., J. Phys.:Condens. Matter 29 465901 (2017);
         "P. Giannozzi et al., J. Chem. Phys. 152 154105 (2020);
          URL http://www.quantum-espresso.org", 
     in publications or presentations arising from this work. More details at
     http://www.quantum-espresso.org/quote

     Parallel version (MPI & OpenMP), running on       8 processor cores
     Number of MPI processes:                 8
     Threads/MPI process:                     1

     MPI processes distributed on     1 nodes
     14187 MiB available memory on the printing compute node when the environment starts

     Reading input from feo_u.scf.in

     Current dimensions of program PWSCF are:
     Max number of different atomic species (ntypx) = 10
     Max number of k-points (npk) =  40000
     Max angular momentum in pseudopotentials (lmaxx) =  4
     file Fe.pbe-spn-kjpaw_psl.1.0.0.UPF: wavefunction(s)  3P 3D renormalized
     file Fe.pbe-spn-kjpaw_psl.1.0.0.UPF: wavefunction(s)  3P 3D renormalized
     file O.pbe-n-kjpaw_psl.1.0.0.UPF: wavefunction(s)  2S 2P renormalized
     Message from routine volume:
     axis vectors are left-handed
     Message from routine setup:
     using ibrav=0 with symmetry is DISCOURAGED, use correct ibrav instead

     K-points division:     npool     =       4
     R & G space division:  proc/nbgrp/npool/nimage =       2
     Subspace diagonalization in iterative solution of the eigenvalue problem:
     a serial algorithm will be used


     Parallelization info
     --------------------
     sticks:   dense  smooth     PW     G-vecs:    dense   smooth      PW
     Min        1550     618    192                42771    10819    1916
     Max        1551     619    193                42772    10820    1917
     Sum        3101    1237    385                85543    21639    3833

     Using Slab Decomposition



     bravais-lattice index     =            0
     lattice parameter (alat)  =       8.1800  a.u.
     unit-cell volume          =     273.6717 (a.u.)^3
     number of atoms/cell      =            4
     number of atomic types    =            3
     number of electrons       =        44.00
     number of Kohn-Sham states=           26
     kinetic-energy cutoff     =      70.0000  Ry
     charge density cutoff     =     700.0000  Ry
     scf convergence threshold =      1.0E-08
     mixing beta               =       0.2000
     number of iterations used =            8  local-TF  mixing
     Exchange-correlation= SLA  PW   PBX  PBC
                           (   1   4   3   4   0   0   0)
     Hubbard projectors: ortho-atomic
     Hubbard parameters of DFT+U (Dudarev formulation) in eV:
     U(Fe1-3d) =  4.6000
     U(Fe2-3d) =  4.6000

     Internal variables: lda_plus_u =T, lda_plus_u_kind = 0

     Internal variables: orbital_resolved =F, hub_pot_fix =F, apply_U = F

     celldm(1)=   8.180000  celldm(2)=   0.000000  celldm(3)=   0.000000
     celldm(4)=   0.000000  celldm(5)=   0.000000  celldm(6)=   0.000000

     crystal axes: (cart. coord. in units of alat)
               a(1) = (   0.500000   0.500000   1.000000 )  
               a(2) = (   0.500000   1.000000   0.500000 )  
               a(3) = (   1.000000   0.500000   0.500000 )  

     reciprocal axes: (cart. coord. in units 2 pi/alat)
               b(1) = ( -0.500000 -0.500000  1.500000 )  
               b(2) = ( -0.500000  1.500000 -0.500000 )  
               b(3) = (  1.500000 -0.500000 -0.500000 )  


     PseudoPot. # 1 for Fe read from file:
     ./pseudo/Fe.pbe-spn-kjpaw_psl.1.0.0.UPF
     MD5 check sum: fc81f059e5c5069939230b1155715ae8
     Pseudo is Projector augmented-wave + core cor, Zval = 16.0
     Generated using &quot;atomic&quot; code by A. Dal Corso  v.6.3
     Shape of augmentation charge: PSQ
     Using radial grid of 1191 points,  6 beta functions with: 
                l(1) =   0
                l(2) =   0
                l(3) =   1
                l(4) =   1
                l(5) =   2
                l(6) =   2
     Q(r) pseudized with 0 coefficients 


     PseudoPot. # 2 for Fe read from file:
     ./pseudo/Fe.pbe-spn-kjpaw_psl.1.0.0.UPF
     MD5 check sum: fc81f059e5c5069939230b1155715ae8
     Pseudo is Projector augmented-wave + core cor, Zval = 16.0
     Generated using &quot;atomic&quot; code by A. Dal Corso  v.6.3
     Shape of augmentation charge: PSQ
     Using radial grid of 1191 points,  6 beta functions with: 
                l(1) =   0
                l(2) =   0
                l(3) =   1
                l(4) =   1
                l(5) =   2
                l(6) =   2
     Q(r) pseudized with 0 coefficients 


     PseudoPot. # 3 for O  read from file:
     ./pseudo/O.pbe-n-kjpaw_psl.1.0.0.UPF
     MD5 check sum: e99d9cef9b487d1ca56f5b95ecd0fd7a
     Pseudo is Projector augmented-wave + core cor, Zval =  6.0
     Generated using &quot;atomic&quot; code by A. Dal Corso  v.6.3
     Shape of augmentation charge: PSQ
     Using radial grid of 1095 points,  4 beta functions with: 
                l(1) =   0
                l(2) =   0
                l(3) =   1
                l(4) =   1
     Q(r) pseudized with 0 coefficients 


     atomic species   valence    mass     pseudopotential
     Fe1              16.00    55.84500     Fe( 1.00)
     Fe2              16.00    55.84500     Fe( 1.00)
     O                 6.00    15.99900     O ( 1.00)

     Starting magnetic structure 
     atomic species   magnetization
     Fe1             0.600
     Fe2            -0.600
     O               0.000

     12 Sym. Ops., with inversion, found


                                    s                        frac. trans.

      isym =  1     identity                                     

 cryst.   s( 1) = (     1          0          0      )
                  (     0          1          0      )
                  (     0          0          1      )

 cart.    s( 1) = (  1.0000000  0.0000000  0.0000000 )
                  (  0.0000000  1.0000000  0.0000000 )
                  (  0.0000000  0.0000000  1.0000000 )


      isym =  2     180 deg rotation - cart. axis [1,-1,0]       

 cryst.   s( 2) = (    -1          0          0      )
                  (     0          0         -1      )
                  (     0         -1          0      )

 cart.    s( 2) = (  0.0000000 -1.0000000  0.0000000 )
                  ( -1.0000000  0.0000000  0.0000000 )
                  (  0.0000000  0.0000000 -1.0000000 )


      isym =  3     180 deg rotation - cart. axis [-1,0,1]       

 cryst.   s( 3) = (     0          0         -1      )
                  (     0         -1          0      )
                  (    -1          0          0      )

 cart.    s( 3) = (  0.0000000  0.0000000 -1.0000000 )
                  (  0.0000000 -1.0000000  0.0000000 )
                  ( -1.0000000  0.0000000  0.0000000 )


      isym =  4     180 deg rotation - cart. axis [0,1,-1]       

 cryst.   s( 4) = (     0         -1          0      )
                  (    -1          0          0      )
                  (     0          0         -1      )

 cart.    s( 4) = ( -1.0000000  0.0000000  0.0000000 )
                  (  0.0000000  0.0000000 -1.0000000 )
                  (  0.0000000 -1.0000000  0.0000000 )


      isym =  5     120 deg rotation - cart. axis [-1,-1,-1]     

 cryst.   s( 5) = (     0          1          0      )
                  (     0          0          1      )
                  (     1          0          0      )

 cart.    s( 5) = (  0.0000000  1.0000000  0.0000000 )
                  (  0.0000000  0.0000000  1.0000000 )
                  (  1.0000000  0.0000000  0.0000000 )


      isym =  6     120 deg rotation - cart. axis [1,1,1]        

 cryst.   s( 6) = (     0          0          1      )
                  (     1          0          0      )
                  (     0          1          0      )

 cart.    s( 6) = (  0.0000000  0.0000000  1.0000000 )
                  (  1.0000000  0.0000000  0.0000000 )
                  (  0.0000000  1.0000000  0.0000000 )


      isym =  7     inversion                                    

 cryst.   s( 7) = (    -1          0          0      )
                  (     0         -1          0      )
                  (     0          0         -1      )

 cart.    s( 7) = ( -1.0000000  0.0000000  0.0000000 )
                  (  0.0000000 -1.0000000  0.0000000 )
                  (  0.0000000  0.0000000 -1.0000000 )


      isym =  8     inv. 180 deg rotation - cart. axis [1,-1,0]  

 cryst.   s( 8) = (     1          0          0      )
                  (     0          0          1      )
                  (     0          1          0      )

 cart.    s( 8) = (  0.0000000  1.0000000  0.0000000 )
                  (  1.0000000  0.0000000  0.0000000 )
                  (  0.0000000  0.0000000  1.0000000 )


      isym =  9     inv. 180 deg rotation - cart. axis [-1,0,1]  

 cryst.   s( 9) = (     0          0          1      )
                  (     0          1          0      )
                  (     1          0          0      )

 cart.    s( 9) = (  0.0000000  0.0000000  1.0000000 )
                  (  0.0000000  1.0000000  0.0000000 )
                  (  1.0000000  0.0000000  0.0000000 )


      isym = 10     inv. 180 deg rotation - cart. axis [0,1,-1]  

 cryst.   s(10) = (     0          1          0      )
                  (     1          0          0      )
                  (     0          0          1      )

 cart.    s(10) = (  1.0000000  0.0000000  0.0000000 )
                  (  0.0000000  0.0000000  1.0000000 )
                  (  0.0000000  1.0000000  0.0000000 )


      isym = 11     inv. 120 deg rotation - cart. axis [-1,-1,-1]

 cryst.   s(11) = (     0         -1          0      )
                  (     0          0         -1      )
                  (    -1          0          0      )

 cart.    s(11) = (  0.0000000 -1.0000000  0.0000000 )
                  (  0.0000000  0.0000000 -1.0000000 )
                  ( -1.0000000  0.0000000  0.0000000 )


      isym = 12     inv. 120 deg rotation - cart. axis [1,1,1]   

 cryst.   s(12) = (     0          0         -1      )
                  (    -1          0          0      )
                  (     0         -1          0      )

 cart.    s(12) = (  0.0000000  0.0000000 -1.0000000 )
                  ( -1.0000000  0.0000000  0.0000000 )
                  (  0.0000000 -1.0000000  0.0000000 )


   Cartesian axes

     site n.     atom                  positions (alat units)
         1        Fe1    tau(   1) = (   0.0000000   0.0000000   0.0000000  )
         2        Fe2    tau(   2) = (   1.0000000   1.0000000   1.0000000  )
         3        O      tau(   3) = (   0.5000000   0.5000000   0.5000000  )
         4        O      tau(   4) = (   1.5000000   1.5000000   1.5000000  )

   Crystallographic axes

     site n.     atom                  positions (cryst. coord.)
         1        Fe1    tau(   1) = (  0.0000000  0.0000000  0.0000000  )
         2        Fe2    tau(   2) = (  0.5000000  0.5000000  0.5000000  )
         3        O      tau(   3) = (  0.2500000  0.2500000  0.2500000  )
         4        O      tau(   4) = (  0.7500000  0.7500000  0.7500000  )

     number of k points=    32  Marzari-Vanderbilt smearing, width (Ry)=  0.0100
                       cart. coord. in units 2pi/alat
        k(    1) = (   0.0000000   0.0000000   0.0000000), wk =   0.0046296
        k(    2) = (   0.2500000  -0.0833333  -0.0833333), wk =   0.0277778
        k(    3) = (   0.5000000  -0.1666667  -0.1666667), wk =   0.0277778
        k(    4) = (  -0.7500000   0.2500000   0.2500000), wk =   0.0138889
        k(    5) = (   0.1666667   0.1666667  -0.1666667), wk =   0.0277778
        k(    6) = (   0.4166667   0.0833333  -0.2500000), wk =   0.0555556
        k(    7) = (  -0.8333333   0.5000000   0.1666667), wk =   0.0555556
        k(    8) = (  -0.5833333   0.4166667   0.0833333), wk =   0.0555556
        k(    9) = (  -0.3333333   0.3333333  -0.0000000), wk =   0.0277778
        k(   10) = (   0.3333333   0.3333333  -0.3333333), wk =   0.0277778
        k(   11) = (  -0.9166667   0.7500000   0.0833333), wk =   0.0555556
        k(   12) = (  -0.6666667   0.6666667   0.0000000), wk =   0.0277778
        k(   13) = (  -0.5000000  -0.5000000   0.5000000), wk =   0.0138889
        k(   14) = (   0.0833333   0.0833333   0.0833333), wk =   0.0092593
        k(   15) = (   0.3333333   0.0000000   0.0000000), wk =   0.0277778
        k(   16) = (  -0.9166667   0.4166667   0.4166667), wk =   0.0277778
        k(   17) = (  -0.6666667   0.3333333   0.3333333), wk =   0.0277778
        k(   18) = (  -0.4166667   0.2500000   0.2500000), wk =   0.0277778
        k(   19) = (   0.2500000   0.2500000  -0.0833333), wk =   0.0277778
        k(   20) = (  -1.0000000   0.6666667   0.3333333), wk =   0.0555556
        k(   21) = (  -0.7500000   0.5833333   0.2500000), wk =   0.0555556
        k(   22) = (  -0.5000000   0.5000000   0.1666667), wk =   0.0555556
        k(   23) = (  -0.5833333  -0.5833333   0.7500000), wk =   0.0277778
        k(   24) = (  -0.3333333  -0.6666667   0.6666667), wk =   0.0555556
        k(   25) = (  -0.0833333  -0.7500000   0.5833333), wk =   0.0277778
        k(   26) = (  -0.4166667  -0.4166667   0.5833333), wk =   0.0277778
        k(   27) = (   0.1666667   0.1666667   0.1666667), wk =   0.0092593
        k(   28) = (  -1.0833333   0.5833333   0.5833333), wk =   0.0277778
        k(   29) = (  -0.8333333   0.5000000   0.5000000), wk =   0.0277778
        k(   30) = (  -0.6666667  -0.6666667   1.0000000), wk =   0.0277778
        k(   31) = (  -0.4166667  -0.7500000   0.9166667), wk =   0.0277778
        k(   32) = (  -0.2500000  -0.2500000  -0.2500000), wk =   0.0046296

                       cryst. coord.
        k(    1) = (   0.0000000   0.0000000   0.0000000), wk =   0.0046296
        k(    2) = (   0.0000000   0.0000000   0.1666667), wk =   0.0277778
        k(    3) = (   0.0000000   0.0000000   0.3333333), wk =   0.0277778
        k(    4) = (   0.0000000   0.0000000  -0.5000000), wk =   0.0138889
        k(    5) = (   0.0000000   0.1666667   0.1666667), wk =   0.0277778
        k(    6) = (   0.0000000   0.1666667   0.3333333), wk =   0.0555556
        k(    7) = (   0.0000000   0.1666667  -0.5000000), wk =   0.0555556
        k(    8) = (   0.0000000   0.1666667  -0.3333333), wk =   0.0555556
        k(    9) = (   0.0000000   0.1666667  -0.1666667), wk =   0.0277778
        k(   10) = (   0.0000000   0.3333333   0.3333333), wk =   0.0277778
        k(   11) = (   0.0000000   0.3333333  -0.5000000), wk =   0.0555556
        k(   12) = (   0.0000000   0.3333333  -0.3333333), wk =   0.0277778
        k(   13) = (   0.0000000  -0.5000000  -0.5000000), wk =   0.0138889
        k(   14) = (   0.1666667   0.1666667   0.1666667), wk =   0.0092593
        k(   15) = (   0.1666667   0.1666667   0.3333333), wk =   0.0277778
        k(   16) = (   0.1666667   0.1666667  -0.5000000), wk =   0.0277778
        k(   17) = (   0.1666667   0.1666667  -0.3333333), wk =   0.0277778
        k(   18) = (   0.1666667   0.1666667  -0.1666667), wk =   0.0277778
        k(   19) = (   0.1666667   0.3333333   0.3333333), wk =   0.0277778
        k(   20) = (   0.1666667   0.3333333  -0.5000000), wk =   0.0555556
        k(   21) = (   0.1666667   0.3333333  -0.3333333), wk =   0.0555556
        k(   22) = (   0.1666667   0.3333333  -0.1666667), wk =   0.0555556
        k(   23) = (   0.1666667  -0.5000000  -0.5000000), wk =   0.0277778
        k(   24) = (   0.1666667  -0.5000000  -0.3333333), wk =   0.0555556
        k(   25) = (   0.1666667  -0.5000000  -0.1666667), wk =   0.0277778
        k(   26) = (   0.1666667  -0.3333333  -0.3333333), wk =   0.0277778
        k(   27) = (   0.3333333   0.3333333   0.3333333), wk =   0.0092593
        k(   28) = (   0.3333333   0.3333333  -0.5000000), wk =   0.0277778
        k(   29) = (   0.3333333   0.3333333  -0.3333333), wk =   0.0277778
        k(   30) = (   0.3333333  -0.5000000  -0.5000000), wk =   0.0277778
        k(   31) = (   0.3333333  -0.5000000  -0.3333333), wk =   0.0277778
        k(   32) = (  -0.5000000  -0.5000000  -0.5000000), wk =   0.0046296

     Dense  grid:    85543 G-vectors     FFT dimensions: (  90,  90,  90)

     Smooth grid:    21639 G-vectors     FFT dimensions: (  54,  54,  54)

     Dynamical RAM for                 wfc:       0.54 MB

     Dynamical RAM for     wfc (w. buffer):       9.13 MB

     Dynamical RAM for             U proj.:       0.21 MB

     Dynamical RAM for  U proj. (w. buff.):       3.51 MB

     Dynamical RAM for           str. fact:       1.96 MB

     Dynamical RAM for           local pot:       0.00 MB

     Dynamical RAM for          nlocal pot:       1.07 MB

     Dynamical RAM for                qrad:       6.37 MB

     Dynamical RAM for          rho,v,vnew:      20.60 MB

     Dynamical RAM for               rhoin:       6.87 MB

     Dynamical RAM for            rho*nmix:      20.88 MB

     Dynamical RAM for           G-vectors:       2.53 MB

     Dynamical RAM for          h,s,v(r/c):       0.12 MB

     Dynamical RAM for          <psi|beta>:       0.02 MB

     Dynamical RAM for                 psi:       1.07 MB

     Dynamical RAM for                hpsi:       1.07 MB

     Dynamical RAM for                spsi:       1.07 MB

     Dynamical RAM for      wfcinit/wfcrot:       1.09 MB

     Dynamical RAM for           addusdens:      31.82 MB

     Dynamical RAM for          addusforce:      31.67 MB

     Dynamical RAM for         addusstress:      33.53 MB

     Estimated static dynamical RAM per process >      71.33 MB

     Estimated max dynamical RAM per process >     125.74 MB

     Estimated total dynamical RAM >     880.63 MB
     Generating pointlists ...
     new r_m :   0.2063 (alat units)  1.6871 (a.u.) for type    1
     new r_m :   0.2063 (alat units)  1.6871 (a.u.) for type    2
     new r_m :   0.2063 (alat units)  1.6871 (a.u.) for type    3

     Initial potential from superposition of free atoms

     starting charge      43.9991, renormalised to      44.0000

     HUBBARD ENERGY =    0.2705  (Ry)

     STARTING HUBBARD OCCUPATIONS:

     =================== HUBBARD OCCUPATIONS ===================
     ------------------------ ATOM    1 ------------------------
     Tr[ns(  1)] (up, down, total) =   5.00000  1.00000  6.00000
     Atomic magnetic moment for atom   1 =   4.00000
     SPIN  1
     eigenvalues:
       1.000  1.000  1.000  1.000  1.000
     eigenvectors (columns):
       1.000  0.000  0.000  0.000  0.000
       0.000  1.000  0.000  0.000  0.000
       0.000  0.000  1.000  0.000  0.000
       0.000  0.000  0.000  1.000  0.000
       0.000  0.000  0.000  0.000  1.000
     occupation matrix ns (before diag.):
       1.000  0.000  0.000  0.000  0.000
       0.000  1.000  0.000  0.000  0.000
       0.000  0.000  1.000  0.000  0.000
       0.000  0.000  0.000  1.000  0.000
       0.000  0.000  0.000  0.000  1.000
     SPIN  2
     eigenvalues:
       0.200  0.200  0.200  0.200  0.200
     eigenvectors (columns):
       1.000  0.000  0.000  0.000  0.000
       0.000  1.000  0.000  0.000  0.000
       0.000  0.000  1.000  0.000  0.000
       0.000  0.000  0.000  1.000  0.000
       0.000  0.000  0.000  0.000  1.000
     occupation matrix ns (before diag.):
       0.200  0.000  0.000  0.000  0.000
       0.000  0.200  0.000  0.000  0.000
       0.000  0.000  0.200  0.000  0.000
       0.000  0.000  0.000  0.200  0.000
       0.000  0.000  0.000  0.000  0.200
     ------------------------ ATOM    2 ------------------------
     Tr[ns(  2)] (up, down, total) =   1.00000  5.00000  6.00000
     Atomic magnetic moment for atom   2 =  -4.00000
     SPIN  1
     eigenvalues:
       0.200  0.200  0.200  0.200  0.200
     eigenvectors (columns):
       1.000  0.000  0.000  0.000  0.000
       0.000  1.000  0.000  0.000  0.000
       0.000  0.000  1.000  0.000  0.000
       0.000  0.000  0.000  1.000  0.000
       0.000  0.000  0.000  0.000  1.000
     occupation matrix ns (before diag.):
       0.200  0.000  0.000  0.000  0.000
       0.000  0.200  0.000  0.000  0.000
       0.000  0.000  0.200  0.000  0.000
       0.000  0.000  0.000  0.200  0.000
       0.000  0.000  0.000  0.000  0.200
     SPIN  2
     eigenvalues:
       1.000  1.000  1.000  1.000  1.000
     eigenvectors (columns):
       1.000  0.000  0.000  0.000  0.000
       0.000  1.000  0.000  0.000  0.000
       0.000  0.000  1.000  0.000  0.000
       0.000  0.000  0.000  1.000  0.000
       0.000  0.000  0.000  0.000  1.000
     occupation matrix ns (before diag.):
       1.000  0.000  0.000  0.000  0.000
       0.000  1.000  0.000  0.000  0.000
       0.000  0.000  1.000  0.000  0.000
       0.000  0.000  0.000  1.000  0.000
       0.000  0.000  0.000  0.000  1.000

     Number of occupied Hubbard levels =   12.0000

     Atomic wfc used for Hubbard projectors are orthogonalized

     Starting wfcs are   28 randomized atomic wfcs
     Checking if some PAW data can be deallocated... 
       PAW data deallocated on    6 nodes for type:  1
       PAW data deallocated on    6 nodes for type:  2
       PAW data deallocated on    4 nodes for type:  3

     total cpu time spent up to now is        3.2 secs

     per-process dynamical memory:   103.5 Mb

     Self-consistent Calculation

     iteration #  1     ecut=    70.00 Ry     beta= 0.20
     Davidson diagonalization with overlap

---- Real-time Memory Report at c_bands before calling an iterative solver
           174 MiB given to the printing process from OS
           101 MiB allocation reported by mallinfo(arena+hblkhd)
         13493 MiB available memory on the node where the printing process lives
------------------
     ethr =  1.00E-02,  avg # of iterations =  2.1

     =================== HUBBARD OCCUPATIONS ===================
     ------------------------ ATOM    1 ------------------------
     Tr[ns(  1)] (up, down, total) =   4.99145  0.60963  5.60108
     Atomic magnetic moment for atom   1 =   4.38182
     SPIN  1
     eigenvalues:
       0.998  0.998  0.999  0.999  0.999
     eigenvectors (columns):
      -0.737  0.676  0.026 -0.007  0.000
      -0.005 -0.022  0.575  0.579  0.577
       0.021  0.007  0.214 -0.788  0.577
       0.676  0.737  0.007  0.026  0.000
       0.016 -0.015  0.789 -0.208 -0.577
     occupation matrix ns (before diag.):
       0.998  0.000  0.000  0.000  0.000
       0.000  0.999  0.000  0.000 -0.000
       0.000  0.000  0.999 -0.000 -0.000
       0.000  0.000 -0.000  0.998 -0.000
       0.000 -0.000 -0.000 -0.000  0.999
     SPIN  2
     eigenvalues:
       0.077  0.077  0.127  0.164  0.164
     eigenvectors (columns):
       0.351 -0.935 -0.000  0.051  0.005
      -0.027 -0.033  0.577 -0.468  0.668
       0.042 -0.007  0.577 -0.344 -0.739
      -0.935 -0.351  0.000  0.005 -0.051
       0.015 -0.039 -0.577 -0.812 -0.071
     occupation matrix ns (before diag.):
       0.077 -0.002 -0.002  0.000 -0.004
      -0.002  0.152 -0.012 -0.003  0.012
      -0.002 -0.012  0.152  0.003  0.012
       0.000 -0.003  0.003  0.077 -0.000
      -0.004  0.012  0.012 -0.000  0.152
     ------------------------ ATOM    2 ------------------------
     Tr[ns(  2)] (up, down, total) =   0.60343  4.99137  5.59480
     Atomic magnetic moment for atom   2 =  -4.38794
     SPIN  1
     eigenvalues:
       0.077  0.077  0.130  0.160  0.160
     eigenvectors (columns):
       0.585 -0.809 -0.000  0.055  0.007
      -0.019 -0.041  0.577 -0.494  0.648
       0.045  0.005  0.577 -0.314 -0.752
      -0.809 -0.585  0.000  0.007 -0.055
       0.027 -0.037 -0.577 -0.809 -0.104
     occupation matrix ns (before diag.):
       0.077 -0.002 -0.002  0.000 -0.004
      -0.002  0.150 -0.010 -0.003  0.010
      -0.002 -0.010  0.150  0.003  0.010
       0.000 -0.003  0.003  0.077 -0.000
      -0.004  0.010  0.010 -0.000  0.150
     SPIN  2
     eigenvalues:
       0.997  0.997  0.999  0.999  0.999
     eigenvectors (columns):
      -0.621 -0.783  0.016 -0.004  0.000
      -0.005  0.012  0.577  0.578  0.577
       0.013 -0.002  0.212 -0.788  0.577
       0.783 -0.621  0.004  0.016  0.000
       0.008  0.010  0.789 -0.211 -0.577
     occupation matrix ns (before diag.):
       0.997  0.000  0.000  0.000  0.000
       0.000  0.999  0.000  0.000 -0.000
       0.000  0.000  0.999 -0.000 -0.000
       0.000  0.000 -0.000  0.997 -0.000
       0.000 -0.000 -0.000 -0.000  0.999

     Number of occupied Hubbard levels =   11.1959

     HUBBARD ENERGY =    0.1806  (Ry)

     total cpu time spent up to now is        6.7 secs

     total energy              =    -740.65626826 Ry
     estimated scf accuracy    <       2.99181485 Ry

     total magnetization       =    -0.01 Bohr mag/cell
     absolute magnetization    =     9.30 Bohr mag/cell

     iteration #  2     ecut=    70.00 Ry     beta= 0.20
     Davidson diagonalization with overlap

---- Real-time Memory Report at c_bands before calling an iterative solver
           202 MiB given to the printing process from OS
           123 MiB allocation reported by mallinfo(arena+hblkhd)
         13320 MiB available memory on the node where the printing process lives
------------------
     ethr =  6.80E-03,  avg # of iterations =  1.5

     =================== HUBBARD OCCUPATIONS ===================
     ------------------------ ATOM    1 ------------------------
     Tr[ns(  1)] (up, down, total) =   4.99093  0.80976  5.80069
     Atomic magnetic moment for atom   1 =   4.18117
     SPIN  1
     eigenvalues:
       0.997  0.997  0.999  0.999  0.999
     eigenvectors (columns):
      -0.522 -0.853 -0.013 -0.005  0.000
      -0.005  0.010 -0.621  0.530 -0.577
       0.011 -0.000 -0.149 -0.803 -0.577
       0.853 -0.522 -0.005  0.013 -0.000
       0.006  0.009 -0.770 -0.272  0.577
     occupation matrix ns (before diag.):
       0.997  0.000  0.000  0.000  0.000
       0.000  0.999  0.000  0.000 -0.000
       0.000  0.000  0.999 -0.000 -0.000
       0.000  0.000 -0.000  0.997 -0.000
       0.000 -0.000 -0.000 -0.000  0.999
     SPIN  2
     eigenvalues:
       0.072  0.072  0.167  0.249  0.249
     eigenvectors (columns):
       0.314 -0.949 -0.000  0.034  0.003
      -0.018 -0.021  0.577 -0.479  0.661
       0.027 -0.006  0.577 -0.333 -0.745
      -0.949 -0.314  0.000  0.003 -0.034
       0.009 -0.026 -0.577 -0.812 -0.084
     occupation matrix ns (before diag.):
       0.072 -0.002 -0.002  0.000 -0.005
      -0.002  0.222 -0.027 -0.004  0.027
      -0.002 -0.027  0.222  0.004  0.027
       0.000 -0.004  0.004  0.072 -0.000
      -0.005  0.027  0.027 -0.000  0.222
     ------------------------ ATOM    2 ------------------------
     Tr[ns(  2)] (up, down, total) =   0.79911  4.99098  5.79009
     Atomic magnetic moment for atom   2 =  -4.19186
     SPIN  1
     eigenvalues:
       0.072  0.072  0.173  0.241  0.241
     eigenvectors (columns):
      -0.636  0.771 -0.000  0.033 -0.004
       0.009  0.025  0.577 -0.484 -0.657
      -0.026 -0.004  0.577 -0.327  0.748
       0.771  0.636  0.000  0.004  0.033
      -0.017  0.021 -0.577 -0.811  0.091
     occupation matrix ns (before diag.):
       0.072 -0.002 -0.002  0.000 -0.005
      -0.002  0.218 -0.023 -0.004  0.023
      -0.002 -0.023  0.218  0.004  0.023
       0.000 -0.004  0.004  0.072 -0.000
      -0.005  0.023  0.023 -0.000  0.218
     SPIN  2
     eigenvalues:
       0.997  0.997  0.999  0.999  0.999
     eigenvectors (columns):
      -0.635 -0.773  0.007 -0.002  0.000
      -0.002  0.006  0.574  0.581 -0.577
       0.006 -0.001  0.216 -0.787 -0.577
       0.773 -0.635  0.002  0.007 -0.000
       0.004  0.005  0.790 -0.207  0.577
     occupation matrix ns (before diag.):
       0.997  0.000  0.000  0.000  0.000
       0.000  0.999  0.000  0.000 -0.000
       0.000  0.000  0.999 -0.000 -0.000
       0.000  0.000 -0.000  0.997 -0.000
       0.000 -0.000 -0.000 -0.000  0.999

     Number of occupied Hubbard levels =   11.5908

     negative rho (up, down):  2.437E-04 2.409E-04

     HUBBARD ENERGY =    0.2071  (Ry)

     total cpu time spent up to now is       10.0 secs

     total energy              =    -741.04175120 Ry
     estimated scf accuracy    <       1.63999110 Ry

     total magnetization       =    -0.01 Bohr mag/cell
     absolute magnetization    =     8.83 Bohr mag/cell

     iteration #  3     ecut=    70.00 Ry     beta= 0.20
     Davidson diagonalization with overlap

---- Real-time Memory Report at c_bands before calling an iterative solver
           202 MiB given to the printing process from OS
           124 MiB allocation reported by mallinfo(arena+hblkhd)
         13319 MiB available memory on the node where the printing process lives
------------------
     ethr =  3.73E-03,  avg # of iterations =  2.0

     =================== HUBBARD OCCUPATIONS ===================
     ------------------------ ATOM    1 ------------------------
     Tr[ns(  1)] (up, down, total) =   4.98818  1.23299  6.22117
     Atomic magnetic moment for atom   1 =   3.75518
     SPIN  1
     eigenvalues:
       0.995  0.995  0.999  0.999  0.999
     eigenvectors (columns):
       0.462  0.886 -0.029  0.006  0.000
      -0.013  0.020  0.549  0.604 -0.577
       0.024  0.001  0.249 -0.777 -0.577
      -0.886  0.462 -0.006 -0.029 -0.000
       0.011  0.021  0.798 -0.173  0.577
     occupation matrix ns (before diag.):
       0.995 -0.000 -0.000  0.000 -0.000
      -0.000  0.999  0.000 -0.000 -0.000
      -0.000  0.000  0.999  0.000 -0.000
       0.000 -0.000  0.000  0.995 -0.000
      -0.000 -0.000 -0.000 -0.000  0.999
     SPIN  2
     eigenvalues:
       0.100  0.100  0.206  0.413  0.413
     eigenvectors (columns):
       0.712 -0.701 -0.000  0.033  0.004
      -0.007 -0.026  0.577 -0.500  0.645
       0.026  0.007  0.577 -0.309 -0.755
      -0.701 -0.712  0.000  0.004 -0.033
       0.019 -0.019 -0.577 -0.809 -0.110
     occupation matrix ns (before diag.):
       0.100 -0.004 -0.004  0.000 -0.008
      -0.004  0.344 -0.069 -0.007  0.069
      -0.004 -0.069  0.344  0.007  0.069
       0.000 -0.007  0.007  0.100 -0.000
      -0.008  0.069  0.069 -0.000  0.344
     ------------------------ ATOM    2 ------------------------
     Tr[ns(  2)] (up, down, total) =   1.23042  4.98813  6.21855
     Atomic magnetic moment for atom   2 =  -3.75771
     SPIN  1
     eigenvalues:
       0.100  0.100  0.221  0.405  0.405
     eigenvectors (columns):
       0.749 -0.662 -0.000  0.031  0.008
      -0.005 -0.026  0.577 -0.562  0.591
       0.025  0.008  0.577 -0.231 -0.783
      -0.662 -0.749  0.000  0.008 -0.031
       0.020 -0.017 -0.577 -0.793 -0.191
     occupation matrix ns (before diag.):
       0.100 -0.004 -0.004  0.000 -0.008
      -0.004  0.343 -0.061 -0.007  0.061
      -0.004 -0.061  0.343  0.007  0.061
       0.000 -0.007  0.007  0.100 -0.000
      -0.008  0.061  0.061 -0.000  0.343
     SPIN  2
     eigenvalues:
       0.995  0.995  0.999  0.999  0.999
     eigenvectors (columns):
       0.491 -0.871 -0.026  0.006  0.000
      -0.011 -0.019  0.558  0.596 -0.577
       0.022 -0.000  0.237 -0.781 -0.577
      -0.871 -0.491 -0.006 -0.026 -0.000
       0.011 -0.019  0.795 -0.185  0.577
     occupation matrix ns (before diag.):
       0.995 -0.000 -0.000  0.000 -0.000
      -0.000  0.999  0.000 -0.000 -0.000
      -0.000  0.000  0.999  0.000 -0.000
       0.000 -0.000  0.000  0.995 -0.000
      -0.000 -0.000 -0.000 -0.000  0.999

     Number of occupied Hubbard levels =   12.4397

     negative rho (up, down):  4.667E-04 4.598E-04

     HUBBARD ENERGY =    0.2527  (Ry)

     total cpu time spent up to now is       13.6 secs

     total energy              =    -741.41730399 Ry
     estimated scf accuracy    <       0.28777748 Ry

     total magnetization       =    -0.00 Bohr mag/cell
     absolute magnetization    =     7.86 Bohr mag/cell

     iteration #  4     ecut=    70.00 Ry     beta= 0.20
     Davidson diagonalization with overlap

---- Real-time Memory Report at c_bands before calling an iterative solver
           203 MiB given to the printing process from OS
           124 MiB allocation reported by mallinfo(arena+hblkhd)
         13311 MiB available memory on the node where the printing process lives
------------------
     ethr =  6.54E-04,  avg # of iterations =  6.9

     =================== HUBBARD OCCUPATIONS ===================
     ------------------------ ATOM    1 ------------------------
     Tr[ns(  1)] (up, down, total) =   4.98460  1.39285  6.37745
     Atomic magnetic moment for atom   1 =   3.59176
     SPIN  1
     eigenvalues:
       0.994  0.994  0.999  0.999  0.999
     eigenvectors (columns):
       0.476  0.875 -0.085  0.009  0.000
      -0.036  0.060  0.477  0.659 -0.577
       0.070  0.002  0.332 -0.743 -0.577
      -0.875  0.476 -0.009 -0.085 -0.000
       0.033  0.061  0.809 -0.084  0.577
     occupation matrix ns (before diag.):
       0.994 -0.000 -0.000  0.000 -0.000
      -0.000  0.999  0.000 -0.000 -0.000
      -0.000  0.000  0.999  0.000 -0.000
       0.000 -0.000  0.000  0.994 -0.000
      -0.000 -0.000 -0.000 -0.000  0.999
     SPIN  2
     eigenvalues:
       0.138  0.139  0.139  0.489  0.489
     eigenvectors (columns):
       0.000 -0.477  0.872  0.105 -0.009
       0.577  0.045  0.074 -0.465 -0.665
       0.577 -0.086  0.002 -0.344  0.736
      -0.000  0.872  0.477  0.009  0.105
      -0.577 -0.041  0.075 -0.809  0.070
     occupation matrix ns (before diag.):
       0.143 -0.015 -0.015  0.000 -0.030
      -0.015  0.369 -0.116 -0.026  0.116
      -0.015 -0.116  0.369  0.026  0.116
       0.000 -0.026  0.026  0.143 -0.000
      -0.030  0.116  0.116 -0.000  0.369
     ------------------------ ATOM    2 ------------------------
     Tr[ns(  2)] (up, down, total) =   1.38282  4.98493  6.36775
     Atomic magnetic moment for atom   2 =  -3.60211
     SPIN  1
     eigenvalues:
       0.143  0.143  0.151  0.473  0.473
     eigenvectors (columns):
       0.152 -0.982 -0.000  0.109  0.008
      -0.069 -0.056  0.577 -0.456  0.671
       0.083 -0.032  0.577 -0.353 -0.731
      -0.982 -0.152  0.000  0.008 -0.109
       0.014 -0.088 -0.577 -0.809 -0.059
     occupation matrix ns (before diag.):
       0.147 -0.015 -0.015  0.000 -0.029
      -0.015  0.363 -0.106 -0.025  0.106
      -0.015 -0.106  0.363  0.025  0.106
       0.000 -0.025  0.025  0.147 -0.000
      -0.029  0.106  0.106 -0.000  0.363
     SPIN  2
     eigenvalues:
       0.994  0.994  0.999  0.999  0.999
     eigenvectors (columns):
       0.515  0.853 -0.082  0.011  0.000
      -0.033  0.059  0.498  0.643 -0.577
       0.067 -0.001  0.308 -0.753 -0.577
      -0.853  0.515 -0.011 -0.082 -0.000
       0.035  0.058  0.806 -0.110  0.577
     occupation matrix ns (before diag.):
       0.994 -0.000 -0.000  0.000 -0.000
      -0.000  0.999  0.000 -0.000 -0.000
      -0.000  0.000  0.999  0.000 -0.000
       0.000 -0.000  0.000  0.994 -0.000
      -0.000 -0.000 -0.000 -0.000  0.999

     Number of occupied Hubbard levels =   12.7452

     negative rho (up, down):  2.737E-04 2.708E-04

     HUBBARD ENERGY =    0.2894  (Ry)

     total cpu time spent up to now is       19.0 secs

     total energy              =    -741.45384152 Ry
     estimated scf accuracy    <       0.25411628 Ry

     total magnetization       =    -0.02 Bohr mag/cell
     absolute magnetization    =     7.50 Bohr mag/cell

     iteration #  5     ecut=    70.00 Ry     beta= 0.20
     Davidson diagonalization with overlap

---- Real-time Memory Report at c_bands before calling an iterative solver
           204 MiB given to the printing process from OS
           125 MiB allocation reported by mallinfo(arena+hblkhd)
         13317 MiB available memory on the node where the printing process lives
------------------
     ethr =  5.78E-04,  avg # of iterations =  2.0

     =================== HUBBARD OCCUPATIONS ===================
     ------------------------ ATOM    1 ------------------------
     Tr[ns(  1)] (up, down, total) =   4.98437  1.30853  6.29290
     Atomic magnetic moment for atom   1 =   3.67584
     SPIN  1
     eigenvalues:
       0.994  0.994  0.998  0.998  0.999
     eigenvectors (columns):
      -0.600  0.789 -0.135  0.005  0.000
       0.043  0.102  0.429  0.686 -0.577
      -0.110 -0.014  0.380 -0.714 -0.577
       0.789  0.600 -0.005 -0.135 -0.000
      -0.067  0.088  0.808 -0.028  0.577
     occupation matrix ns (before diag.):
       0.994 -0.000 -0.000  0.000 -0.000
      -0.000  0.999  0.000 -0.000 -0.000
      -0.000  0.000  0.999  0.000 -0.000
       0.000 -0.000  0.000  0.994 -0.000
      -0.000 -0.000 -0.000 -0.000  0.999
     SPIN  2
     eigenvalues:
       0.076  0.111  0.111  0.505  0.505
     eigenvectors (columns):
       0.000  0.129  0.986  0.108 -0.015
       0.577 -0.071  0.054 -0.497 -0.641
       0.577  0.083  0.034 -0.307  0.751
      -0.000 -0.986  0.129  0.015  0.108
      -0.577  0.012  0.089 -0.804  0.110
     occupation matrix ns (before diag.):
       0.116 -0.018 -0.018  0.000 -0.035
      -0.018  0.359 -0.142 -0.030  0.142
      -0.018 -0.142  0.359  0.030  0.142
       0.000 -0.030  0.030  0.116 -0.000
      -0.035  0.142  0.142 -0.000  0.359
     ------------------------ ATOM    2 ------------------------
     Tr[ns(  2)] (up, down, total) =   1.26312  4.98498  6.24810
     Atomic magnetic moment for atom   2 =  -3.72187
     SPIN  1
     eigenvalues:
       0.081  0.113  0.113  0.478  0.478
     eigenvectors (columns):
       0.000  0.482  0.869  0.111 -0.016
       0.577 -0.047  0.078 -0.501 -0.638
       0.577  0.091  0.002 -0.302  0.753
      -0.000 -0.869  0.482  0.016  0.111
      -0.577  0.044  0.080 -0.803  0.115
     occupation matrix ns (before diag.):
       0.118 -0.017 -0.017  0.000 -0.033
      -0.017  0.342 -0.131 -0.029  0.131
      -0.017 -0.131  0.342  0.029  0.131
       0.000 -0.029  0.029  0.118 -0.000
      -0.033  0.131  0.131 -0.000  0.342
     SPIN  2
     eigenvalues:
       0.994  0.994  0.998  0.998  0.999
     eigenvectors (columns):
       0.451  0.884 -0.126  0.010  0.000
      -0.056  0.087  0.461  0.666 -0.577
       0.103  0.005  0.346 -0.732 -0.577
      -0.884  0.451 -0.010 -0.126 -0.000
       0.047  0.092  0.807 -0.066  0.577
     occupation matrix ns (before diag.):
       0.994 -0.000 -0.000  0.000 -0.000
      -0.000  0.999  0.000 -0.000 -0.000
      -0.000  0.000  0.999  0.000 -0.000
       0.000 -0.000  0.000  0.994 -0.000
      -0.000 -0.000 -0.000 -0.000  0.999

     Number of occupied Hubbard levels =   12.5410

     negative rho (up, down):  3.637E-04 3.455E-04

     HUBBARD ENERGY =    0.2894  (Ry)

     total cpu time spent up to now is       23.2 secs

     total energy              =    -741.49964091 Ry
     estimated scf accuracy    <       0.04265723 Ry

     total magnetization       =    -0.06 Bohr mag/cell
     absolute magnetization    =     7.64 Bohr mag/cell

     iteration #  6     ecut=    70.00 Ry     beta= 0.20
     Davidson diagonalization with overlap

---- Real-time Memory Report at c_bands before calling an iterative solver
           204 MiB given to the printing process from OS
           126 MiB allocation reported by mallinfo(arena+hblkhd)
         13304 MiB available memory on the node where the printing process lives
------------------
     ethr =  9.69E-05,  avg # of iterations =  5.5

     =================== HUBBARD OCCUPATIONS ===================
     ------------------------ ATOM    1 ------------------------
     Tr[ns(  1)] (up, down, total) =   4.98142  1.32305  6.30447
     Atomic magnetic moment for atom   1 =   3.65837
     SPIN  1
     eigenvalues:
       0.993  0.993  0.998  0.998  0.999
     eigenvectors (columns):
      -0.121  0.974 -0.193  0.001  0.000
       0.125  0.095  0.397 -0.696 -0.577
      -0.145  0.061  0.404  0.692 -0.577
       0.974  0.121  0.001  0.193 -0.000
      -0.019  0.156  0.801 -0.004  0.577
     occupation matrix ns (before diag.):
       0.994 -0.000 -0.000  0.000 -0.001
      -0.000  0.998  0.000 -0.001 -0.000
      -0.000  0.000  0.998  0.001 -0.000
       0.000 -0.001  0.001  0.994 -0.000
      -0.001 -0.000 -0.000 -0.000  0.998
     SPIN  2
     eigenvalues:
       0.064  0.112  0.112  0.518  0.518
     eigenvectors (columns):
       0.000  0.317  0.940  0.129 -0.006
       0.577 -0.069  0.079 -0.438 -0.681
       0.577  0.103  0.021 -0.370  0.720
      -0.000 -0.940  0.317  0.006  0.129
      -0.577  0.034  0.100 -0.809  0.039
     occupation matrix ns (before diag.):
       0.119 -0.021 -0.021  0.000 -0.042
      -0.021  0.362 -0.149 -0.037  0.149
      -0.021 -0.149  0.362  0.037  0.149
       0.000 -0.037  0.037  0.119 -0.000
      -0.042  0.149  0.149 -0.000  0.362
     ------------------------ ATOM    2 ------------------------
     Tr[ns(  2)] (up, down, total) =   1.28731  4.98239  6.26970
     Atomic magnetic moment for atom   2 =  -3.69508
     SPIN  1
     eigenvalues:
       0.068  0.114  0.114  0.496  0.496
     eigenvectors (columns):
       0.000  0.081  0.988  0.129 -0.011
       0.577 -0.087  0.060 -0.465 -0.663
       0.577  0.095  0.045 -0.342  0.734
      -0.000 -0.988  0.081  0.011  0.129
      -0.577  0.009  0.105 -0.807  0.071
     occupation matrix ns (before diag.):
       0.120 -0.020 -0.020  0.000 -0.040
      -0.020  0.349 -0.141 -0.035  0.141
      -0.020 -0.141  0.349  0.035  0.141
       0.000 -0.035  0.035  0.120 -0.000
      -0.040  0.141  0.141 -0.000  0.349
     SPIN  2
     eigenvalues:
       0.994  0.994  0.998  0.998  0.999
     eigenvectors (columns):
       0.242  0.955 -0.174  0.006  0.000
      -0.102  0.099  0.425  0.683 -0.577
       0.137  0.039  0.379 -0.709 -0.577
      -0.955  0.242 -0.006 -0.174 -0.000
       0.035  0.138  0.804 -0.027  0.577
     occupation matrix ns (before diag.):
       0.994 -0.000 -0.000  0.000 -0.001
      -0.000  0.998  0.000 -0.001 -0.000
      -0.000  0.000  0.998  0.001 -0.000
       0.000 -0.001  0.001  0.994 -0.000
      -0.001 -0.000 -0.000 -0.000  0.998

     Number of occupied Hubbard levels =   12.5742

     negative rho (up, down):  4.424E-04 4.185E-04

     HUBBARD ENERGY =    0.2787  (Ry)

     total cpu time spent up to now is       27.8 secs

     total energy              =    -741.51739483 Ry
     estimated scf accuracy    <       0.01115365 Ry

     total magnetization       =    -0.05 Bohr mag/cell
     absolute magnetization    =     7.55 Bohr mag/cell

     iteration #  7     ecut=    70.00 Ry     beta= 0.20
     Davidson diagonalization with overlap

---- Real-time Memory Report at c_bands before calling an iterative solver
           205 MiB given to the printing process from OS
           126 MiB allocation reported by mallinfo(arena+hblkhd)
         13301 MiB available memory on the node where the printing process lives
------------------
     ethr =  2.53E-05,  avg # of iterations =  5.0

     =================== HUBBARD OCCUPATIONS ===================
     ------------------------ ATOM    1 ------------------------
     Tr[ns(  1)] (up, down, total) =   4.98095  1.34907  6.33002
     Atomic magnetic moment for atom   1 =   3.63188
     SPIN  1
     eigenvalues:
       0.993  0.993  0.998  0.998  0.999
     eigenvectors (columns):
      -0.250  0.953 -0.173  0.002  0.000
       0.100  0.100  0.395 -0.701 -0.577
      -0.136  0.037  0.409  0.692 -0.577
       0.953  0.250  0.002  0.173 -0.000
      -0.036  0.137  0.804 -0.009  0.577
     occupation matrix ns (before diag.):
       0.993 -0.000 -0.000  0.000 -0.001
      -0.000  0.998  0.000 -0.001 -0.000
      -0.000  0.000  0.998  0.001 -0.000
       0.000 -0.001  0.001  0.993 -0.000
      -0.001 -0.000 -0.000 -0.000  0.998
     SPIN  2
     eigenvalues:
       0.065  0.122  0.122  0.520  0.520
     eigenvectors (columns):
       0.000 -0.253  0.956  0.149 -0.005
       0.577  0.086  0.086 -0.427 -0.685
       0.577 -0.117  0.032 -0.380  0.712
      -0.000  0.956  0.253  0.005  0.149
      -0.577 -0.031  0.117 -0.807  0.027
     occupation matrix ns (before diag.):
       0.131 -0.024 -0.024  0.000 -0.048
      -0.024  0.363 -0.149 -0.041  0.149
      -0.024 -0.149  0.363  0.041  0.149
       0.000 -0.041  0.041  0.131 -0.000
      -0.048  0.149  0.149 -0.000  0.363
     ------------------------ ATOM    2 ------------------------
     Tr[ns(  2)] (up, down, total) =   1.34793  4.98198  6.32992
     Atomic magnetic moment for atom   2 =  -3.63405
     SPIN  1
     eigenvalues:
       0.069  0.125  0.125  0.514  0.514
     eigenvectors (columns):
       0.000  0.399  0.905  0.149 -0.011
       0.577 -0.072  0.098 -0.453 -0.668
       0.577  0.121  0.013 -0.352  0.727
      -0.000 -0.905  0.399  0.011  0.149
      -0.577  0.049  0.111 -0.805  0.059
     occupation matrix ns (before diag.):
       0.134 -0.023 -0.023  0.000 -0.047
      -0.023  0.360 -0.146 -0.040  0.146
      -0.023 -0.146  0.360  0.040  0.146
       0.000 -0.040  0.040  0.134 -0.000
      -0.047  0.146  0.146 -0.000  0.360
     SPIN  2
     eigenvalues:
       0.993  0.993  0.998  0.998  0.999
     eigenvectors (columns):
       0.233  0.959 -0.162  0.002  0.000
      -0.096  0.092  0.411  0.693 -0.577
       0.127  0.037  0.394 -0.703 -0.577
      -0.959  0.233 -0.002 -0.162 -0.000
       0.031  0.129  0.806 -0.010  0.577
     occupation matrix ns (before diag.):
       0.993 -0.000 -0.000  0.000 -0.001
      -0.000  0.998  0.000 -0.001 -0.000
      -0.000  0.000  0.998  0.001 -0.000
       0.000 -0.001  0.001  0.993 -0.000
      -0.001 -0.000 -0.000 -0.000  0.998

     Number of occupied Hubbard levels =   12.6599

     negative rho (up, down):  3.396E-04 3.255E-04

     HUBBARD ENERGY =    0.2647  (Ry)

     total cpu time spent up to now is       32.3 secs

     total energy              =    -741.52205877 Ry
     estimated scf accuracy    <       0.01486117 Ry

     total magnetization       =    -0.01 Bohr mag/cell
     absolute magnetization    =     7.48 Bohr mag/cell

     iteration #  8     ecut=    70.00 Ry     beta= 0.20
     Davidson diagonalization with overlap

---- Real-time Memory Report at c_bands before calling an iterative solver
           206 MiB given to the printing process from OS
           127 MiB allocation reported by mallinfo(arena+hblkhd)
         13300 MiB available memory on the node where the printing process lives
------------------
     ethr =  2.53E-05,  avg # of iterations =  2.1

     =================== HUBBARD OCCUPATIONS ===================
     ------------------------ ATOM    1 ------------------------
     Tr[ns(  1)] (up, down, total) =   4.98112  1.30698  6.28810
     Atomic magnetic moment for atom   1 =   3.67413
     SPIN  1
     eigenvalues:
       0.993  0.993  0.998  0.998  0.999
     eigenvectors (columns):
      -0.250  0.951 -0.182  0.002  0.000
       0.105  0.104  0.394 -0.700 -0.577
      -0.143  0.039  0.409  0.691 -0.577
       0.951  0.250  0.002  0.182 -0.000
      -0.038  0.143  0.803 -0.009  0.577
     occupation matrix ns (before diag.):
       0.993 -0.000 -0.000  0.000 -0.001
      -0.000  0.998  0.000 -0.001 -0.000
      -0.000  0.000  0.998  0.001 -0.000
       0.000 -0.001  0.001  0.993 -0.000
      -0.001 -0.000 -0.000 -0.000  0.998
     SPIN  2
     eigenvalues:
       0.049  0.112  0.112  0.516  0.516
     eigenvectors (columns):
      -0.000 -0.450  0.875 -0.180 -0.001
      -0.577  0.079  0.123  0.405 -0.694
      -0.577 -0.146  0.007  0.398  0.698
       0.000  0.875  0.450 -0.001  0.180
       0.577 -0.067  0.130  0.803  0.004
     occupation matrix ns (before diag.):
       0.126 -0.029 -0.029  0.000 -0.058
      -0.029  0.352 -0.151 -0.050  0.151
      -0.029 -0.151  0.352  0.050  0.151
       0.000 -0.050  0.050  0.126 -0.000
      -0.058  0.151  0.151 -0.000  0.352
     ------------------------ ATOM    2 ------------------------
     Tr[ns(  2)] (up, down, total) =   1.33211  4.98195  6.31406
     Atomic magnetic moment for atom   2 =  -3.64984
     SPIN  1
     eigenvalues:
       0.051  0.116  0.116  0.525  0.525
     eigenvectors (columns):
       0.000 -0.979  0.100  0.179 -0.001
       0.577 -0.086 -0.119 -0.397  0.698
       0.577 -0.060  0.133 -0.406 -0.693
      -0.000 -0.100 -0.979 -0.001 -0.179
      -0.577 -0.145  0.015 -0.803  0.005
     occupation matrix ns (before diag.):
       0.129 -0.029 -0.029  0.000 -0.059
      -0.029  0.358 -0.154 -0.051  0.154
      -0.029 -0.154  0.358  0.051  0.154
       0.000 -0.051  0.051  0.129 -0.000
      -0.059  0.154  0.154 -0.000  0.358
     SPIN  2
     eigenvalues:
       0.994  0.994  0.998  0.998  0.999
     eigenvectors (columns):
       0.453  0.874 -0.176  0.004  0.000
      -0.077  0.121  0.419  0.686 -0.577
       0.144  0.006  0.385 -0.706 -0.577
      -0.874  0.453 -0.004 -0.176 -0.000
       0.066  0.128  0.803 -0.020  0.577
     occupation matrix ns (before diag.):
       0.994 -0.000 -0.000  0.000 -0.001
      -0.000  0.998  0.000 -0.001 -0.000
      -0.000  0.000  0.998  0.001 -0.000
       0.000 -0.001  0.001  0.994 -0.000
      -0.001 -0.000 -0.000 -0.000  0.998

     Number of occupied Hubbard levels =   12.6022

     negative rho (up, down):  3.059E-04 3.020E-04

     HUBBARD ENERGY =    0.2645  (Ry)

     total cpu time spent up to now is       36.2 secs

     total energy              =    -741.52531603 Ry
     estimated scf accuracy    <       0.00204120 Ry

     total magnetization       =     0.02 Bohr mag/cell
     absolute magnetization    =     7.52 Bohr mag/cell

     iteration #  9     ecut=    70.00 Ry     beta= 0.20
     Davidson diagonalization with overlap

---- Real-time Memory Report at c_bands before calling an iterative solver
           206 MiB given to the printing process from OS
           128 MiB allocation reported by mallinfo(arena+hblkhd)
         13338 MiB available memory on the node where the printing process lives
------------------
     ethr =  4.64E-06,  avg # of iterations =  7.5

     =================== HUBBARD OCCUPATIONS ===================
     ------------------------ ATOM    1 ------------------------
     Tr[ns(  1)] (up, down, total) =   4.98120  1.29770  6.27891
     Atomic magnetic moment for atom   1 =   3.68350
     SPIN  1
     eigenvalues:
       0.994  0.994  0.998  0.998  0.999
     eigenvectors (columns):
       0.065  0.978 -0.196  0.004  0.000
      -0.133  0.089  0.387 -0.701 -0.577
       0.143  0.071  0.413  0.686 -0.577
      -0.978  0.065  0.004  0.196 -0.000
       0.011  0.160  0.801 -0.015  0.577
     occupation matrix ns (before diag.):
       0.994 -0.000 -0.000  0.000 -0.001
      -0.000  0.998  0.001 -0.001 -0.001
      -0.000  0.001  0.998  0.001 -0.001
       0.000 -0.001  0.001  0.994 -0.000
      -0.001 -0.001 -0.001 -0.000  0.998
     SPIN  2
     eigenvalues:
       0.046  0.106  0.106  0.519  0.519
     eigenvectors (columns):
       0.000  0.028 -0.982  0.189 -0.003
       0.577 -0.131 -0.081 -0.390  0.701
       0.577  0.136 -0.073 -0.412 -0.688
      -0.000 -0.982 -0.028 -0.003 -0.189
      -0.577  0.004 -0.154 -0.802  0.013
     occupation matrix ns (before diag.):
       0.121 -0.031 -0.031  0.000 -0.062
      -0.031  0.352 -0.153 -0.054  0.153
      -0.031 -0.153  0.352  0.054  0.153
       0.000 -0.054  0.054  0.121 -0.000
      -0.062  0.153  0.153 -0.000  0.352
     ------------------------ ATOM    2 ------------------------
     Tr[ns(  2)] (up, down, total) =   1.29865  4.98159  6.28024
     Atomic magnetic moment for atom   2 =  -3.68294
     SPIN  1
     eigenvalues:
       0.047  0.108  0.108  0.518  0.518
     eigenvectors (columns):
      -0.000  0.241 -0.952 -0.190 -0.002
      -0.577 -0.111 -0.108  0.392  0.699
      -0.577  0.149 -0.042  0.409 -0.689
       0.000 -0.952 -0.241  0.002 -0.190
       0.577  0.038 -0.150  0.802  0.010
     occupation matrix ns (before diag.):
       0.122 -0.031 -0.031  0.000 -0.062
      -0.031  0.351 -0.152 -0.054  0.152
      -0.031 -0.152  0.351  0.054  0.152
       0.000 -0.054  0.054  0.122 -0.000
      -0.062  0.152  0.152 -0.000  0.351
     SPIN  2
     eigenvalues:
       0.994  0.994  0.998  0.998  0.999
     eigenvectors (columns):
      -0.352  0.916 -0.192  0.004  0.000
       0.099  0.122  0.387 -0.701 -0.577
      -0.155  0.025  0.414  0.686 -0.577
       0.916  0.352  0.004  0.192 -0.000
      -0.056  0.147  0.801 -0.015  0.577
     occupation matrix ns (before diag.):
       0.994 -0.000 -0.000  0.000 -0.001
      -0.000  0.998  0.001 -0.001 -0.001
      -0.000  0.001  0.998  0.001 -0.001
       0.000 -0.001  0.001  0.994 -0.000
      -0.001 -0.001 -0.001 -0.000  0.998

     Number of occupied Hubbard levels =   12.5591

     negative rho (up, down):  2.960E-04 3.005E-04

     HUBBARD ENERGY =    0.2544  (Ry)

     total cpu time spent up to now is       42.3 secs

     total energy              =    -741.52667737 Ry
     estimated scf accuracy    <       0.01049293 Ry

     total magnetization       =    -0.00 Bohr mag/cell
     absolute magnetization    =     7.55 Bohr mag/cell

     iteration # 10     ecut=    70.00 Ry     beta= 0.20
     Davidson diagonalization with overlap

---- Real-time Memory Report at c_bands before calling an iterative solver
           207 MiB given to the printing process from OS
           129 MiB allocation reported by mallinfo(arena+hblkhd)
         13280 MiB available memory on the node where the printing process lives
------------------
     ethr =  4.64E-06,  avg # of iterations =  4.2

     =================== HUBBARD OCCUPATIONS ===================
     ------------------------ ATOM    1 ------------------------
     Tr[ns(  1)] (up, down, total) =   4.98106  1.30667  6.28773
     Atomic magnetic moment for atom   1 =   3.67439
     SPIN  1
     eigenvalues:
       0.993  0.993  0.998  0.998  0.999
     eigenvectors (columns):
      -0.181  0.966 -0.184  0.002  0.000
       0.114  0.098  0.394 -0.699 -0.577
      -0.142  0.050  0.408  0.691 -0.577
       0.966  0.181  0.002  0.184 -0.000
      -0.028  0.148  0.802 -0.008  0.577
     occupation matrix ns (before diag.):
       0.994 -0.000 -0.000  0.000 -0.001
      -0.000  0.998  0.001 -0.001 -0.001
      -0.000  0.001  0.998  0.001 -0.001
       0.000 -0.001  0.001  0.994 -0.000
      -0.001 -0.001 -0.001 -0.000  0.998
     SPIN  2
     eigenvalues:
       0.044  0.108  0.108  0.523  0.523
     eigenvectors (columns):
       0.000 -0.719  0.660  0.218  0.009
       0.577  0.039  0.174 -0.369 -0.706
       0.577 -0.170 -0.053 -0.427  0.673
      -0.000  0.660  0.719 -0.009  0.218
      -0.577 -0.131  0.120 -0.796 -0.033
     occupation matrix ns (before diag.):
       0.128 -0.036 -0.036  0.000 -0.072
      -0.036  0.351 -0.153 -0.062  0.153
      -0.036 -0.153  0.351  0.062  0.153
       0.000 -0.062  0.062  0.128 -0.000
      -0.072  0.153  0.153 -0.000  0.351
     ------------------------ ATOM    2 ------------------------
     Tr[ns(  2)] (up, down, total) =   1.31086  4.98096  6.29182
     Atomic magnetic moment for atom   2 =  -3.67010
     SPIN  1
     eigenvalues:
       0.044  0.108  0.108  0.525  0.525
     eigenvectors (columns):
       0.000  0.218 -0.951  0.217 -0.006
       0.577 -0.130 -0.121 -0.380  0.701
       0.577  0.170 -0.052 -0.417 -0.679
      -0.000 -0.951 -0.218 -0.006 -0.217
      -0.577  0.040 -0.173 -0.797  0.022
     occupation matrix ns (before diag.):
       0.128 -0.036 -0.036  0.000 -0.072
      -0.036  0.352 -0.154 -0.063  0.154
      -0.036 -0.154  0.352  0.063  0.154
       0.000 -0.063  0.063  0.128 -0.000
      -0.072  0.154  0.154 -0.000  0.352
     SPIN  2
     eigenvalues:
       0.993  0.993  0.998  0.998  0.999
     eigenvectors (columns):
      -0.287  0.939 -0.187  0.004  0.000
       0.104  0.112  0.387 -0.702 -0.577
      -0.149  0.034  0.415  0.687 -0.577
       0.939  0.287  0.004  0.187 -0.000
      -0.045  0.146  0.802 -0.016  0.577
     occupation matrix ns (before diag.):
       0.994 -0.000 -0.000  0.000 -0.001
      -0.000  0.998  0.001 -0.001 -0.001
      -0.000  0.001  0.998  0.001 -0.001
       0.000 -0.001  0.001  0.994 -0.000
      -0.001 -0.001 -0.001 -0.000  0.998

     Number of occupied Hubbard levels =   12.5796

     negative rho (up, down):  3.206E-04 3.233E-04

     HUBBARD ENERGY =    0.2618  (Ry)

     total cpu time spent up to now is       46.1 secs

     total energy              =    -741.52467831 Ry
     estimated scf accuracy    <       0.00534743 Ry

     total magnetization       =     0.00 Bohr mag/cell
     absolute magnetization    =     7.53 Bohr mag/cell

     iteration # 11     ecut=    70.00 Ry     beta= 0.20
     Davidson diagonalization with overlap

---- Real-time Memory Report at c_bands before calling an iterative solver
           207 MiB given to the printing process from OS
           129 MiB allocation reported by mallinfo(arena+hblkhd)
         13289 MiB available memory on the node where the printing process lives
------------------
     ethr =  4.64E-06,  avg # of iterations =  5.2

     =================== HUBBARD OCCUPATIONS ===================
     ------------------------ ATOM    1 ------------------------
     Tr[ns(  1)] (up, down, total) =   4.98083  1.33796  6.31879
     Atomic magnetic moment for atom   1 =   3.64286
     SPIN  1
     eigenvalues:
       0.993  0.993  0.998  0.998  0.999
     eigenvectors (columns):
       0.184  0.969 -0.164  0.004  0.000
      -0.102  0.088  0.419  0.688 -0.577
       0.127  0.044  0.387 -0.707 -0.577
      -0.969  0.184 -0.004 -0.164 -0.000
       0.025  0.132  0.805 -0.018  0.577
     occupation matrix ns (before diag.):
       0.993 -0.000 -0.000  0.000 -0.001
      -0.000  0.998  0.000 -0.001 -0.000
      -0.000  0.000  0.998  0.001 -0.000
       0.000 -0.001  0.001  0.993 -0.000
      -0.001 -0.000 -0.000 -0.000  0.998
     SPIN  2
     eigenvalues:
       0.050  0.115  0.115  0.529  0.529
     eigenvectors (columns):
       0.000  0.141 -0.964  0.226 -0.015
       0.577 -0.145 -0.115 -0.351  0.714
       0.577  0.172 -0.069 -0.443 -0.661
      -0.000 -0.964 -0.141 -0.015 -0.226
      -0.577  0.027 -0.183 -0.793  0.053
     occupation matrix ns (before diag.):
       0.136 -0.037 -0.037  0.000 -0.075
      -0.037  0.355 -0.153 -0.065  0.153
      -0.037 -0.153  0.355  0.065  0.153
       0.000 -0.065  0.065  0.136 -0.000
      -0.075  0.153  0.153 -0.000  0.355
     ------------------------ ATOM    2 ------------------------
     Tr[ns(  2)] (up, down, total) =   1.32958  4.98080  6.31038
     Atomic magnetic moment for atom   2 =  -3.65121
     SPIN  1
     eigenvalues:
       0.050  0.115  0.115  0.525  0.525
     eigenvectors (columns):
       0.000  0.565 -0.793  0.228 -0.008
       0.577 -0.077 -0.169 -0.372  0.703
       0.577  0.185  0.018 -0.422 -0.674
      -0.000 -0.793 -0.565 -0.008 -0.228
      -0.577  0.108 -0.151 -0.794  0.029
     occupation matrix ns (before diag.):
       0.136 -0.037 -0.037  0.000 -0.074
      -0.037  0.353 -0.151 -0.064  0.151
      -0.037 -0.151  0.353  0.064  0.151
       0.000 -0.064  0.064  0.136 -0.000
      -0.074  0.151  0.151 -0.000  0.353
     SPIN  2
     eigenvalues:
       0.993  0.993  0.998  0.998  0.999
     eigenvectors (columns):
       0.195  0.967 -0.164  0.003  0.000
      -0.100  0.089  0.414  0.691 -0.577
       0.127  0.043  0.391 -0.704 -0.577
      -0.967  0.195 -0.003 -0.164 -0.000
       0.027  0.131  0.805 -0.013  0.577
     occupation matrix ns (before diag.):
       0.993 -0.000 -0.000  0.000 -0.001
      -0.000  0.998  0.000 -0.001 -0.000
      -0.000  0.000  0.998  0.001 -0.000
       0.000 -0.001  0.001  0.993 -0.000
      -0.001 -0.000 -0.000 -0.000  0.998

     Number of occupied Hubbard levels =   12.6292

     negative rho (up, down):  3.228E-04 3.229E-04

     HUBBARD ENERGY =    0.2624  (Ry)

     total cpu time spent up to now is       51.4 secs

     total energy              =    -741.52758720 Ry
     estimated scf accuracy    <       0.00254457 Ry

     total magnetization       =    -0.01 Bohr mag/cell
     absolute magnetization    =     7.49 Bohr mag/cell

     iteration # 12     ecut=    70.00 Ry     beta= 0.20
     Davidson diagonalization with overlap

---- Real-time Memory Report at c_bands before calling an iterative solver
           207 MiB given to the printing process from OS
           129 MiB allocation reported by mallinfo(arena+hblkhd)
         13287 MiB available memory on the node where the printing process lives
------------------
     ethr =  4.64E-06,  avg # of iterations =  1.3

     =================== HUBBARD OCCUPATIONS ===================
     ------------------------ ATOM    1 ------------------------
     Tr[ns(  1)] (up, down, total) =   4.98071  1.34030  6.32101
     Atomic magnetic moment for atom   1 =   3.64041
     SPIN  1
     eigenvalues:
       0.993  0.993  0.998  0.998  0.999
     eigenvectors (columns):
       0.344  0.925 -0.161  0.011  0.000
      -0.084  0.101  0.448  0.670 -0.577
       0.130  0.022  0.356 -0.723 -0.577
      -0.925  0.344 -0.011 -0.161 -0.000
       0.046  0.123  0.804 -0.053  0.577
     occupation matrix ns (before diag.):
       0.993 -0.000 -0.000  0.000 -0.001
      -0.000  0.998  0.000 -0.001 -0.000
      -0.000  0.000  0.998  0.001 -0.000
       0.000 -0.001  0.001  0.993 -0.000
      -0.001 -0.000 -0.000 -0.000  0.998
     SPIN  2
     eigenvalues:
       0.051  0.115  0.115  0.530  0.530
     eigenvectors (columns):
       0.000 -0.555 -0.799  0.231 -0.018
       0.577  0.080 -0.171 -0.343  0.717
       0.577 -0.188  0.016 -0.449 -0.655
      -0.000  0.799 -0.555 -0.018 -0.231
      -0.577 -0.108 -0.155 -0.792  0.062
     occupation matrix ns (before diag.):
       0.137 -0.038 -0.038  0.000 -0.076
      -0.038  0.355 -0.152 -0.066  0.152
      -0.038 -0.152  0.355  0.066  0.152
       0.000 -0.066  0.066  0.137 -0.000
      -0.076  0.152  0.152 -0.000  0.355
     ------------------------ ATOM    2 ------------------------
     Tr[ns(  2)] (up, down, total) =   1.33475  4.98077  6.31552
     Atomic magnetic moment for atom   2 =  -3.64602
     SPIN  1
     eigenvalues:
       0.051  0.115  0.115  0.527  0.527
     eigenvectors (columns):
       0.000 -0.352 -0.907  0.232 -0.013
       0.577  0.119 -0.148 -0.359  0.708
       0.577 -0.188 -0.029 -0.434 -0.665
      -0.000  0.907 -0.352 -0.013 -0.232
      -0.577 -0.069 -0.177 -0.793  0.043
     occupation matrix ns (before diag.):
       0.138 -0.038 -0.038  0.000 -0.076
      -0.038  0.353 -0.151 -0.066  0.151
      -0.038 -0.151  0.353  0.066  0.151
       0.000 -0.066  0.066  0.138 -0.000
      -0.076  0.151  0.151 -0.000  0.353
     SPIN  2
     eigenvalues:
       0.993  0.993  0.998  0.998  0.999
     eigenvectors (columns):
       0.250  0.955 -0.160  0.008  0.000
      -0.093  0.092  0.436  0.678 -0.577
       0.126  0.034  0.369 -0.716 -0.577
      -0.955  0.250 -0.008 -0.160 -0.000
       0.033  0.126  0.805 -0.038  0.577
     occupation matrix ns (before diag.):
       0.993 -0.000 -0.000  0.000 -0.001
      -0.000  0.998  0.000 -0.001 -0.000
      -0.000  0.000  0.998  0.001 -0.000
       0.000 -0.001  0.001  0.993 -0.000
      -0.001 -0.000 -0.000 -0.000  0.998

     Number of occupied Hubbard levels =   12.6365

     negative rho (up, down):  3.007E-04 3.020E-04

     HUBBARD ENERGY =    0.2570  (Ry)

     total cpu time spent up to now is       55.0 secs

     total energy              =    -741.52741698 Ry
     estimated scf accuracy    <       0.00374392 Ry

     total magnetization       =    -0.01 Bohr mag/cell
     absolute magnetization    =     7.49 Bohr mag/cell

     iteration # 13     ecut=    70.00 Ry     beta= 0.20
     Davidson diagonalization with overlap

---- Real-time Memory Report at c_bands before calling an iterative solver
           207 MiB given to the printing process from OS
           129 MiB allocation reported by mallinfo(arena+hblkhd)
         13287 MiB available memory on the node where the printing process lives
------------------
     ethr =  4.64E-06,  avg # of iterations =  3.7

     =================== HUBBARD OCCUPATIONS ===================
     ------------------------ ATOM    1 ------------------------
     Tr[ns(  1)] (up, down, total) =   4.98026  1.34396  6.32421
     Atomic magnetic moment for atom   1 =   3.63630
     SPIN  1
     eigenvalues:
       0.993  0.993  0.998  0.998  0.999
     eigenvectors (columns):
      -0.573  0.805 -0.151 -0.004  0.000
       0.051  0.112  0.420 -0.689 -0.577
      -0.123 -0.012  0.386  0.709 -0.577
       0.805  0.573 -0.004  0.151 -0.000
      -0.071  0.100  0.807  0.020  0.577
     occupation matrix ns (before diag.):
       0.993 -0.000 -0.000  0.000 -0.001
      -0.000  0.998  0.000 -0.001 -0.000
      -0.000  0.000  0.998  0.001 -0.000
       0.000 -0.001  0.001  0.993 -0.000
      -0.001 -0.000 -0.000 -0.000  0.998
     SPIN  2
     eigenvalues:
       0.048  0.113  0.113  0.535  0.535
     eigenvectors (columns):
       0.000 -0.284 -0.922  0.263 -0.018
       0.577 -0.210 -0.048 -0.348  0.707
       0.577  0.146 -0.158 -0.438 -0.654
      -0.000 -0.922  0.284 -0.018 -0.263
      -0.577 -0.063 -0.205 -0.786  0.052
     occupation matrix ns (before diag.):
       0.142 -0.044 -0.044  0.000 -0.087
      -0.044  0.353 -0.153 -0.076  0.153
      -0.044 -0.153  0.353  0.076  0.153
       0.000 -0.076  0.076  0.142 -0.000
      -0.087  0.153  0.153 -0.000  0.353
     ------------------------ ATOM    2 ------------------------
     Tr[ns(  2)] (up, down, total) =   1.33219  4.98020  6.31239
     Atomic magnetic moment for atom   2 =  -3.64801
     SPIN  1
     eigenvalues:
       0.048  0.113  0.113  0.530  0.530
     eigenvectors (columns):
       0.000 -0.964  0.028  0.263 -0.027
       0.577 -0.113 -0.184 -0.323  0.718
       0.577 -0.102  0.190 -0.461 -0.639
      -0.000 -0.028 -0.964 -0.027 -0.263
      -0.577 -0.216  0.006 -0.783  0.080
     occupation matrix ns (before diag.):
       0.142 -0.043 -0.043  0.000 -0.087
      -0.043  0.350 -0.151 -0.075  0.151
      -0.043 -0.151  0.350  0.075  0.151
       0.000 -0.075  0.075  0.142 -0.000
      -0.087  0.151  0.151 -0.000  0.350
     SPIN  2
     eigenvalues:
       0.993  0.993  0.998  0.998  0.999
     eigenvectors (columns):
       0.248  0.957 -0.150  0.008  0.000
      -0.087  0.086  0.441  0.676 -0.577
       0.118  0.033  0.366 -0.720 -0.577
      -0.957  0.248 -0.008 -0.150 -0.000
       0.031  0.119  0.806 -0.043  0.577
     occupation matrix ns (before diag.):
       0.993 -0.000 -0.000  0.000 -0.001
      -0.000  0.998  0.000 -0.001 -0.000
      -0.000  0.000  0.998  0.001 -0.000
       0.000 -0.001  0.001  0.993 -0.000
      -0.001 -0.000 -0.000 -0.000  0.998

     Number of occupied Hubbard levels =   12.6366

     negative rho (up, down):  3.018E-04 2.992E-04

     HUBBARD ENERGY =    0.2569  (Ry)

     total cpu time spent up to now is       58.4 secs

     total energy              =    -741.52734735 Ry
     estimated scf accuracy    <       0.00290790 Ry

     total magnetization       =    -0.01 Bohr mag/cell
     absolute magnetization    =     7.48 Bohr mag/cell

     iteration # 14     ecut=    70.00 Ry     beta= 0.20
     Davidson diagonalization with overlap

---- Real-time Memory Report at c_bands before calling an iterative solver
           207 MiB given to the printing process from OS
           129 MiB allocation reported by mallinfo(arena+hblkhd)
         13298 MiB available memory on the node where the printing process lives
------------------
     ethr =  4.64E-06,  avg # of iterations =  1.3

     =================== HUBBARD OCCUPATIONS ===================
     ------------------------ ATOM    1 ------------------------
     Tr[ns(  1)] (up, down, total) =   4.98035  1.33702  6.31737
     Atomic magnetic moment for atom   1 =   3.64333
     SPIN  1
     eigenvalues:
       0.993  0.993  0.998  0.998  0.999
     eigenvectors (columns):
       0.462  0.874 -0.151  0.003  0.000
      -0.066  0.104  0.417  0.691 -0.577
       0.123  0.005  0.390 -0.707 -0.577
      -0.874  0.462 -0.003 -0.151 -0.000
       0.058  0.109  0.807 -0.015  0.577
     occupation matrix ns (before diag.):
       0.993 -0.000 -0.000  0.000 -0.001
      -0.000  0.998  0.000 -0.000 -0.000
      -0.000  0.000  0.998  0.000 -0.000
       0.000 -0.000  0.000  0.993 -0.000
      -0.001 -0.000 -0.000 -0.000  0.998
     SPIN  2
     eigenvalues:
       0.047  0.112  0.112  0.533  0.533
     eigenvectors (columns):
       0.000  0.965  0.000  0.261  0.022
       0.577  0.107  0.185 -0.334 -0.714
       0.577  0.107 -0.185 -0.451  0.646
      -0.000 -0.000  0.965 -0.022  0.261
      -0.577  0.214  0.000 -0.785 -0.067
     occupation matrix ns (before diag.):
       0.141 -0.044 -0.044  0.000 -0.087
      -0.044  0.352 -0.152 -0.075  0.152
      -0.044 -0.152  0.352  0.075  0.152
       0.000 -0.075  0.075  0.141 -0.000
      -0.087  0.152  0.152 -0.000  0.352
     ------------------------ ATOM    2 ------------------------
     Tr[ns(  2)] (up, down, total) =   1.32690  4.98045  6.30736
     Atomic magnetic moment for atom   2 =  -3.65355
     SPIN  1
     eigenvalues:
       0.047  0.111  0.111  0.528  0.528
     eigenvectors (columns):
       0.000  0.929 -0.260  0.261  0.035
       0.577  0.053 -0.208 -0.299 -0.729
       0.577  0.154  0.150 -0.482  0.623
      -0.000 -0.260 -0.929 -0.035  0.261
      -0.577  0.207 -0.058 -0.781 -0.106
     occupation matrix ns (before diag.):
       0.140 -0.043 -0.043  0.000 -0.087
      -0.043  0.349 -0.151 -0.075  0.151
      -0.043 -0.151  0.349  0.075  0.151
       0.000 -0.075  0.075  0.140 -0.000
      -0.087  0.151  0.151 -0.000  0.349
     SPIN  2
     eigenvalues:
       0.993  0.993  0.998  0.998  0.999
     eigenvectors (columns):
       0.305  0.941 -0.149  0.009  0.000
      -0.081  0.090  0.447  0.672 -0.577
       0.119  0.025  0.359 -0.723 -0.577
      -0.941  0.305 -0.009 -0.149 -0.000
       0.038  0.116  0.806 -0.051  0.577
     occupation matrix ns (before diag.):
       0.993 -0.000 -0.000  0.000 -0.001
      -0.000  0.998  0.000 -0.000 -0.000
      -0.000  0.000  0.998  0.000 -0.000
       0.000 -0.000  0.000  0.993 -0.000
      -0.001 -0.000 -0.000 -0.000  0.998

     Number of occupied Hubbard levels =   12.6247

     negative rho (up, down):  3.034E-04 2.999E-04

     HUBBARD ENERGY =    0.2575  (Ry)

     total cpu time spent up to now is       61.8 secs

     total energy              =    -741.52714702 Ry
     estimated scf accuracy    <       0.00116003 Ry

     total magnetization       =    -0.01 Bohr mag/cell
     absolute magnetization    =     7.49 Bohr mag/cell

     iteration # 15     ecut=    70.00 Ry     beta= 0.20
     Davidson diagonalization with overlap

---- Real-time Memory Report at c_bands before calling an iterative solver
           207 MiB given to the printing process from OS
           129 MiB allocation reported by mallinfo(arena+hblkhd)
         13333 MiB available memory on the node where the printing process lives
------------------
     ethr =  2.64E-06,  avg # of iterations =  2.3

     =================== HUBBARD OCCUPATIONS ===================
     ------------------------ ATOM    1 ------------------------
     Tr[ns(  1)] (up, down, total) =   4.98049  1.33042  6.31091
     Atomic magnetic moment for atom   1 =   3.65007
     SPIN  1
     eigenvalues:
       0.993  0.993  0.998  0.998  0.999
     eigenvectors (columns):
       0.447  0.881 -0.151  0.014  0.000
      -0.067  0.104  0.465  0.660 -0.577
       0.123  0.007  0.339 -0.733 -0.577
      -0.881  0.447 -0.014 -0.151 -0.000
       0.056  0.110  0.804 -0.073  0.577
     occupation matrix ns (before diag.):
       0.993 -0.000 -0.000  0.000 -0.001
      -0.000  0.998  0.000 -0.000 -0.000
      -0.000  0.000  0.998  0.000 -0.000
       0.000 -0.000  0.000  0.993 -0.000
      -0.001 -0.000 -0.000 -0.000  0.998
     SPIN  2
     eigenvalues:
       0.047  0.111  0.111  0.531  0.531
     eigenvectors (columns):
       0.000  0.958 -0.120  0.258  0.023
       0.577  0.082 -0.195 -0.333 -0.715
       0.577  0.128  0.169 -0.452  0.646
      -0.000 -0.120 -0.958 -0.023  0.258
      -0.577  0.210 -0.026 -0.786 -0.069
     occupation matrix ns (before diag.):
       0.139 -0.043 -0.043  0.000 -0.086
      -0.043  0.351 -0.152 -0.074  0.152
      -0.043 -0.152  0.351  0.074  0.152
       0.000 -0.074  0.074  0.139 -0.000
      -0.086  0.152  0.152 -0.000  0.351
     ------------------------ ATOM    2 ------------------------
     Tr[ns(  2)] (up, down, total) =   1.32306  4.98067  6.30373
     Atomic magnetic moment for atom   2 =  -3.65760
     SPIN  1
     eigenvalues:
       0.047  0.111  0.111  0.527  0.527
     eigenvectors (columns):
       0.000  0.097 -0.961  0.259 -0.019
       0.577 -0.172 -0.124 -0.343  0.710
       0.577  0.194 -0.087 -0.443 -0.652
      -0.000 -0.961 -0.097 -0.019 -0.259
      -0.577  0.021 -0.211 -0.786  0.058
     occupation matrix ns (before diag.):
       0.139 -0.043 -0.043  0.000 -0.085
      -0.043  0.348 -0.151 -0.074  0.151
      -0.043 -0.151  0.348  0.074  0.151
       0.000 -0.074  0.074  0.139 -0.000
      -0.085  0.151  0.151 -0.000  0.348
     SPIN  2
     eigenvalues:
       0.993  0.993  0.998  0.998  0.999
     eigenvectors (columns):
       0.108  0.983 -0.149  0.002  0.000
      -0.098  0.072  0.415  0.692 -0.577
       0.111  0.049  0.392 -0.706 -0.577
      -0.983  0.108 -0.002 -0.149 -0.000
       0.013  0.121  0.807 -0.013  0.577
     occupation matrix ns (before diag.):
       0.993 -0.000 -0.000  0.000 -0.001
      -0.000  0.998  0.000 -0.000 -0.000
      -0.000  0.000  0.998  0.000 -0.000
       0.000 -0.000  0.000  0.993 -0.000
      -0.001 -0.000 -0.000 -0.000  0.998

     Number of occupied Hubbard levels =   12.6146

     negative rho (up, down):  3.030E-04 2.999E-04

     HUBBARD ENERGY =    0.2559  (Ry)

     total cpu time spent up to now is       66.2 secs

     total energy              =    -741.52726578 Ry
     estimated scf accuracy    <       0.00013465 Ry

     total magnetization       =    -0.01 Bohr mag/cell
     absolute magnetization    =     7.50 Bohr mag/cell

     iteration # 16     ecut=    70.00 Ry     beta= 0.20
     Davidson diagonalization with overlap

---- Real-time Memory Report at c_bands before calling an iterative solver
           207 MiB given to the printing process from OS
           129 MiB allocation reported by mallinfo(arena+hblkhd)
         13286 MiB available memory on the node where the printing process lives
------------------
     ethr =  3.06E-07,  avg # of iterations =  5.4

     =================== HUBBARD OCCUPATIONS ===================
     ------------------------ ATOM    1 ------------------------
     Tr[ns(  1)] (up, down, total) =   4.98057  1.32503  6.30560
     Atomic magnetic moment for atom   1 =   3.65554
     SPIN  1
     eigenvalues:
       0.993  0.993  0.998  0.998  0.999
     eigenvectors (columns):
       0.265  0.953 -0.149  0.008  0.000
      -0.085  0.087  0.443  0.675 -0.577
       0.118  0.030  0.363 -0.721 -0.577
      -0.953  0.265 -0.008 -0.149 -0.000
       0.033  0.117  0.806 -0.046  0.577
     occupation matrix ns (before diag.):
       0.993 -0.000 -0.000  0.000 -0.001
      -0.000  0.998  0.000 -0.000 -0.000
      -0.000  0.000  0.998  0.000 -0.000
       0.000 -0.000  0.000  0.993 -0.000
      -0.001 -0.000 -0.000 -0.000  0.998
     SPIN  2
     eigenvalues:
       0.046  0.109  0.109  0.530  0.530
     eigenvectors (columns):
       0.000 -0.574  0.775  0.260  0.038
       0.577  0.085  0.197 -0.291 -0.732
       0.577 -0.213 -0.024 -0.489  0.618
      -0.000  0.775  0.574 -0.038  0.260
      -0.577 -0.128  0.172 -0.779 -0.115
     occupation matrix ns (before diag.):
       0.138 -0.044 -0.044  0.000 -0.087
      -0.044  0.350 -0.152 -0.075  0.152
      -0.044 -0.152  0.350  0.075  0.152
       0.000 -0.075  0.075  0.138 -0.000
      -0.087  0.152  0.152 -0.000  0.350
     ------------------------ ATOM    2 ------------------------
     Tr[ns(  2)] (up, down, total) =   1.32102  4.98075  6.30176
     Atomic magnetic moment for atom   2 =  -3.65973
     SPIN  1
     eigenvalues:
       0.046  0.109  0.109  0.528  0.528
     eigenvectors (columns):
       0.000  0.043  0.964  0.262  0.028
       0.577 -0.181  0.116 -0.320 -0.720
       0.577  0.191  0.099 -0.463  0.637
      -0.000 -0.964  0.043 -0.028  0.262
      -0.577  0.010  0.215 -0.783 -0.082
     occupation matrix ns (before diag.):
       0.138 -0.043 -0.043  0.000 -0.087
      -0.043  0.348 -0.151 -0.075  0.151
      -0.043 -0.151  0.348  0.075  0.151
       0.000 -0.075  0.075  0.138 -0.000
      -0.087  0.151  0.151 -0.000  0.348
     SPIN  2
     eigenvalues:
       0.993  0.993  0.998  0.998  0.999
     eigenvectors (columns):
      -0.000  0.989 -0.147  0.000  0.000
       0.104  0.060  0.404 -0.699 -0.577
      -0.104  0.060  0.404  0.699 -0.577
       0.989  0.000 -0.000  0.147 -0.000
      -0.000  0.120  0.808  0.000  0.577
     occupation matrix ns (before diag.):
       0.993 -0.000 -0.000  0.000 -0.001
      -0.000  0.998  0.000 -0.000 -0.000
      -0.000  0.000  0.998  0.000 -0.000
       0.000 -0.000  0.000  0.993 -0.000
      -0.001 -0.000 -0.000 -0.000  0.998

     Number of occupied Hubbard levels =   12.6074

     negative rho (up, down):  3.028E-04 3.004E-04

     HUBBARD ENERGY =    0.2558  (Ry)

     total cpu time spent up to now is       72.3 secs

     total energy              =    -741.52735978 Ry
     estimated scf accuracy    <       0.00010116 Ry

     total magnetization       =    -0.01 Bohr mag/cell
     absolute magnetization    =     7.50 Bohr mag/cell

     iteration # 17     ecut=    70.00 Ry     beta= 0.20
     Davidson diagonalization with overlap

---- Real-time Memory Report at c_bands before calling an iterative solver
           207 MiB given to the printing process from OS
           129 MiB allocation reported by mallinfo(arena+hblkhd)
         13274 MiB available memory on the node where the printing process lives
------------------
     ethr =  2.30E-07,  avg # of iterations =  1.4

     =================== HUBBARD OCCUPATIONS ===================
     ------------------------ ATOM    1 ------------------------
     Tr[ns(  1)] (up, down, total) =   4.98053  1.32602  6.30655
     Atomic magnetic moment for atom   1 =   3.65451
     SPIN  1
     eigenvalues:
       0.993  0.993  0.998  0.998  0.999
     eigenvectors (columns):
       0.078  0.986 -0.148  0.008  0.000
      -0.100  0.069  0.366 -0.720 -0.577
       0.109  0.052  0.441  0.677 -0.577
      -0.986  0.078  0.008  0.148 -0.000
       0.010  0.121  0.806 -0.043  0.577
     occupation matrix ns (before diag.):
       0.993 -0.000 -0.000  0.000 -0.001
      -0.000  0.998  0.000 -0.000 -0.000
      -0.000  0.000  0.998  0.000 -0.000
       0.000 -0.000  0.000  0.993 -0.000
      -0.001 -0.000 -0.000 -0.000  0.998
     SPIN  2
     eigenvalues:
       0.046  0.110  0.110  0.530  0.530
     eigenvectors (columns):
       0.000 -0.677 -0.687  0.262 -0.033
       0.577  0.057 -0.208 -0.304  0.726
       0.577 -0.209  0.054 -0.477 -0.627
      -0.000  0.687 -0.677 -0.033 -0.262
      -0.577 -0.151 -0.153 -0.781  0.100
     occupation matrix ns (before diag.):
       0.139 -0.044 -0.044  0.000 -0.087
      -0.044  0.349 -0.152 -0.076  0.152
      -0.044 -0.152  0.349  0.076  0.152
       0.000 -0.076  0.076  0.139 -0.000
      -0.087  0.152  0.152 -0.000  0.349
     ------------------------ ATOM    2 ------------------------
     Tr[ns(  2)] (up, down, total) =   1.32357  4.98066  6.30424
     Atomic magnetic moment for atom   2 =  -3.65709
     SPIN  1
     eigenvalues:
       0.046  0.110  0.110  0.529  0.529
     eigenvectors (columns):
       0.000  0.461 -0.847  0.263 -0.026
       0.577 -0.113 -0.184 -0.326  0.717
       0.577  0.216 -0.005 -0.458 -0.641
      -0.000 -0.847 -0.461 -0.026 -0.263
      -0.577  0.103 -0.190 -0.784  0.076
     occupation matrix ns (before diag.):
       0.139 -0.044 -0.044  0.000 -0.087
      -0.044  0.349 -0.151 -0.076  0.151
      -0.044 -0.151  0.349  0.076  0.151
       0.000 -0.076  0.076  0.139 -0.000
      -0.087  0.151  0.151 -0.000  0.349
     SPIN  2
     eigenvalues:
       0.993  0.993  0.998  0.998  0.999
     eigenvectors (columns):
       0.439  0.886 -0.146  0.014  0.000
      -0.066  0.100  0.467  0.659 -0.577
       0.120  0.008  0.337 -0.734 -0.577
      -0.886  0.439 -0.014 -0.146 -0.000
       0.053  0.108  0.804 -0.075  0.577
     occupation matrix ns (before diag.):
       0.993 -0.000 -0.000  0.000 -0.001
      -0.000  0.998  0.000 -0.000 -0.000
      -0.000  0.000  0.998  0.000 -0.000
       0.000 -0.000  0.000  0.993 -0.000
      -0.001 -0.000 -0.000 -0.000  0.998

     Number of occupied Hubbard levels =   12.6108

     negative rho (up, down):  3.022E-04 3.007E-04

     HUBBARD ENERGY =    0.2559  (Ry)

     total cpu time spent up to now is       76.7 secs

     total energy              =    -741.52735620 Ry
     estimated scf accuracy    <       0.00002488 Ry

     total magnetization       =    -0.00 Bohr mag/cell
     absolute magnetization    =     7.50 Bohr mag/cell

     iteration # 18     ecut=    70.00 Ry     beta= 0.20
     Davidson diagonalization with overlap

---- Real-time Memory Report at c_bands before calling an iterative solver
           207 MiB given to the printing process from OS
           129 MiB allocation reported by mallinfo(arena+hblkhd)
         13275 MiB available memory on the node where the printing process lives
------------------
     ethr =  5.66E-08,  avg # of iterations =  4.6

     =================== HUBBARD OCCUPATIONS ===================
     ------------------------ ATOM    1 ------------------------
     Tr[ns(  1)] (up, down, total) =   4.98051  1.32598  6.30649
     Atomic magnetic moment for atom   1 =   3.65453
     SPIN  1
     eigenvalues:
       0.993  0.993  0.998  0.998  0.999
     eigenvectors (columns):
       0.435  0.888 -0.147  0.006  0.000
      -0.067  0.100  0.432  0.682 -0.577
       0.120  0.008  0.375 -0.715 -0.577
      -0.888  0.435 -0.006 -0.147 -0.000
       0.053  0.108  0.807 -0.033  0.577
     occupation matrix ns (before diag.):
       0.993 -0.000 -0.000  0.000 -0.001
      -0.000  0.998  0.000 -0.000 -0.000
      -0.000  0.000  0.998  0.000 -0.000
       0.000 -0.000  0.000  0.993 -0.000
      -0.001 -0.000 -0.000 -0.000  0.998
     SPIN  2
     eigenvalues:
       0.046  0.110  0.110  0.530  0.530
     eigenvectors (columns):
       0.000  0.428 -0.864  0.264 -0.023
       0.577 -0.120 -0.180 -0.332  0.714
       0.577  0.216 -0.014 -0.452 -0.644
      -0.000 -0.864 -0.428 -0.023 -0.264
      -0.577  0.096 -0.194 -0.784  0.070
     occupation matrix ns (before diag.):
       0.139 -0.044 -0.044  0.000 -0.088
      -0.044  0.349 -0.151 -0.076  0.151
      -0.044 -0.151  0.349  0.076  0.151
       0.000 -0.076  0.076  0.139 -0.000
      -0.088  0.151  0.151 -0.000  0.349
     ------------------------ ATOM    2 ------------------------
     Tr[ns(  2)] (up, down, total) =   1.32617  4.98060  6.30677
     Atomic magnetic moment for atom   2 =  -3.65443
     SPIN  1
     eigenvalues:
       0.046  0.110  0.110  0.530  0.530
     eigenvectors (columns):
       0.000  0.308 -0.914  0.264  0.030
       0.577 -0.143 -0.163 -0.313 -0.722
       0.577  0.212 -0.043 -0.469  0.632
      -0.000 -0.914 -0.308 -0.030  0.264
      -0.577  0.069 -0.205 -0.782 -0.090
     occupation matrix ns (before diag.):
       0.140 -0.044 -0.044  0.000 -0.088
      -0.044  0.349 -0.151 -0.076  0.151
      -0.044 -0.151  0.349  0.076  0.151
       0.000 -0.076  0.076  0.140 -0.000
      -0.088  0.151  0.151 -0.000  0.349
     SPIN  2
     eigenvalues:
       0.993  0.993  0.998  0.998  0.999
     eigenvectors (columns):
       0.436  0.888 -0.146  0.012  0.000
      -0.067  0.099  0.460  0.664 -0.577
       0.119  0.008  0.345 -0.730 -0.577
      -0.888  0.436 -0.012 -0.146 -0.000
       0.053  0.107  0.805 -0.066  0.577
     occupation matrix ns (before diag.):
       0.993 -0.000 -0.000  0.000 -0.001
      -0.000  0.998  0.000 -0.000 -0.000
      -0.000  0.000  0.998  0.000 -0.000
       0.000 -0.000  0.000  0.993 -0.000
      -0.001 -0.000 -0.000 -0.000  0.998

     Number of occupied Hubbard levels =   12.6133

     negative rho (up, down):  3.022E-04 3.009E-04

     HUBBARD ENERGY =    0.2559  (Ry)

     total cpu time spent up to now is       82.0 secs

     total energy              =    -741.52736791 Ry
     estimated scf accuracy    <       0.00000504 Ry

     total magnetization       =    -0.00 Bohr mag/cell
     absolute magnetization    =     7.50 Bohr mag/cell

     iteration # 19     ecut=    70.00 Ry     beta= 0.20
     Davidson diagonalization with overlap

---- Real-time Memory Report at c_bands before calling an iterative solver
           207 MiB given to the printing process from OS
           129 MiB allocation reported by mallinfo(arena+hblkhd)
         13273 MiB available memory on the node where the printing process lives
------------------
     ethr =  1.15E-08,  avg # of iterations =  1.7

     =================== HUBBARD OCCUPATIONS ===================
     ------------------------ ATOM    1 ------------------------
     Tr[ns(  1)] (up, down, total) =   4.98053  1.32540  6.30593
     Atomic magnetic moment for atom   1 =   3.65513
     SPIN  1
     eigenvalues:
       0.993  0.993  0.998  0.998  0.999
     eigenvectors (columns):
       0.458  0.877 -0.147  0.006  0.000
      -0.064  0.101  0.431  0.683 -0.577
       0.120  0.005  0.376 -0.715 -0.577
      -0.877  0.458 -0.006 -0.147 -0.000
       0.056  0.106  0.807 -0.032  0.577
     occupation matrix ns (before diag.):
       0.993 -0.000 -0.000  0.000 -0.001
      -0.000  0.998  0.000 -0.000 -0.000
      -0.000  0.000  0.998  0.000 -0.000
       0.000 -0.000  0.000  0.993 -0.000
      -0.001 -0.000 -0.000 -0.000  0.998
     SPIN  2
     eigenvalues:
       0.046  0.110  0.110  0.530  0.530
     eigenvectors (columns):
       0.000 -0.048 -0.963  0.263 -0.030
       0.577 -0.193 -0.099 -0.313  0.722
       0.577  0.182 -0.117 -0.469 -0.633
      -0.000 -0.963  0.048 -0.030 -0.263
      -0.577 -0.011 -0.216 -0.782  0.090
     occupation matrix ns (before diag.):
       0.139 -0.044 -0.044  0.000 -0.088
      -0.044  0.349 -0.151 -0.076  0.151
      -0.044 -0.151  0.349  0.076  0.151
       0.000 -0.076  0.076  0.139 -0.000
      -0.088  0.151  0.151 -0.000  0.349
     ------------------------ ATOM    2 ------------------------
     Tr[ns(  2)] (up, down, total) =   1.32594  4.98061  6.30654
     Atomic magnetic moment for atom   2 =  -3.65467
     SPIN  1
     eigenvalues:
       0.046  0.110  0.110  0.530  0.530
     eigenvectors (columns):
       0.000 -0.201 -0.943  0.264 -0.029
       0.577  0.161 -0.145 -0.317  0.721
       0.577 -0.206 -0.067 -0.466 -0.635
      -0.000  0.943 -0.201 -0.029 -0.264
      -0.577 -0.045 -0.212 -0.783  0.086
     occupation matrix ns (before diag.):
       0.139 -0.044 -0.044  0.000 -0.088
      -0.044  0.349 -0.151 -0.076  0.151
      -0.044 -0.151  0.349  0.076  0.151
       0.000 -0.076  0.076  0.139 -0.000
      -0.088  0.151  0.151 -0.000  0.349
     SPIN  2
     eigenvalues:
       0.993  0.993  0.998  0.998  0.999
     eigenvectors (columns):
       0.284  0.948 -0.146  0.007  0.000
      -0.082  0.087  0.437  0.679 -0.577
       0.116  0.028  0.370 -0.718 -0.577
      -0.948  0.284 -0.007 -0.146 -0.000
       0.034  0.115  0.807 -0.039  0.577
     occupation matrix ns (before diag.):
       0.993 -0.000 -0.000  0.000 -0.001
      -0.000  0.998  0.000 -0.000 -0.000
      -0.000  0.000  0.998  0.000 -0.000
       0.000 -0.000  0.000  0.993 -0.000
      -0.001 -0.000 -0.000 -0.000  0.998

     Number of occupied Hubbard levels =   12.6125

     negative rho (up, down):  3.014E-04 3.014E-04

     HUBBARD ENERGY =    0.2558  (Ry)

     total cpu time spent up to now is       85.8 secs

     total energy              =    -741.52736789 Ry
     estimated scf accuracy    <       0.00000244 Ry

     total magnetization       =     0.00 Bohr mag/cell
     absolute magnetization    =     7.50 Bohr mag/cell

     iteration # 20     ecut=    70.00 Ry     beta= 0.20
     Davidson diagonalization with overlap

---- Real-time Memory Report at c_bands before calling an iterative solver
           207 MiB given to the printing process from OS
           129 MiB allocation reported by mallinfo(arena+hblkhd)
         13272 MiB available memory on the node where the printing process lives
------------------
     ethr =  5.53E-09,  avg # of iterations =  5.1

     =================== HUBBARD OCCUPATIONS ===================
     ------------------------ ATOM    1 ------------------------
     Tr[ns(  1)] (up, down, total) =   4.98060  1.32462  6.30522
     Atomic magnetic moment for atom   1 =   3.65597
     SPIN  1
     eigenvalues:
       0.993  0.993  0.998  0.998  0.999
     eigenvectors (columns):
       0.381  0.913 -0.147  0.006  0.000
      -0.073  0.095  0.434  0.681 -0.577
       0.119  0.015  0.373 -0.716 -0.577
      -0.913  0.381 -0.006 -0.147 -0.000
       0.046  0.111  0.807 -0.035  0.577
     occupation matrix ns (before diag.):
       0.993 -0.000 -0.000  0.000 -0.001
      -0.000  0.998  0.000 -0.000 -0.000
      -0.000  0.000  0.998  0.000 -0.000
       0.000 -0.000  0.000  0.993 -0.000
      -0.001 -0.000 -0.000 -0.000  0.998
     SPIN  2
     eigenvalues:
       0.046  0.110  0.110  0.530  0.530
     eigenvectors (columns):
       0.000  0.602 -0.753  0.264  0.027
       0.577 -0.079 -0.201 -0.323 -0.718
       0.577  0.214  0.033 -0.461  0.638
      -0.000 -0.753 -0.602 -0.027  0.264
      -0.577  0.135 -0.169 -0.783 -0.080
     occupation matrix ns (before diag.):
       0.139 -0.044 -0.044  0.000 -0.088
      -0.044  0.349 -0.151 -0.076  0.151
      -0.044 -0.151  0.349  0.076  0.151
       0.000 -0.076  0.076  0.139 -0.000
      -0.088  0.151  0.151 -0.000  0.349
     ------------------------ ATOM    2 ------------------------
     Tr[ns(  2)] (up, down, total) =   1.32496  4.98060  6.30556
     Atomic magnetic moment for atom   2 =  -3.65565
     SPIN  1
     eigenvalues:
       0.046  0.110  0.110  0.530  0.530
     eigenvectors (columns):
       0.000 -0.952 -0.156  0.264 -0.025
       0.577 -0.076 -0.202 -0.328  0.716
       0.577 -0.137  0.167 -0.456 -0.642
      -0.000  0.156 -0.952 -0.025 -0.264
      -0.577 -0.213 -0.035 -0.784  0.074
     occupation matrix ns (before diag.):
       0.139 -0.044 -0.044  0.000 -0.088
      -0.044  0.349 -0.151 -0.076  0.151
      -0.044 -0.151  0.349  0.076  0.151
       0.000 -0.076  0.076  0.139 -0.000
      -0.088  0.151  0.151 -0.000  0.349
     SPIN  2
     eigenvalues:
       0.993  0.993  0.998  0.998  0.999
     eigenvectors (columns):
      -0.456  0.878 -0.147 -0.000  0.000
       0.065  0.101  0.405 -0.699 -0.577
      -0.120  0.005  0.402  0.700 -0.577
       0.878  0.456 -0.000  0.147 -0.000
      -0.055  0.107  0.808  0.002  0.577
     occupation matrix ns (before diag.):
       0.993 -0.000 -0.000  0.000 -0.001
      -0.000  0.998  0.000 -0.000 -0.000
      -0.000  0.000  0.998  0.000 -0.000
       0.000 -0.000  0.000  0.993 -0.000
      -0.001 -0.000 -0.000 -0.000  0.998

     Number of occupied Hubbard levels =   12.6108

     negative rho (up, down):  3.000E-04 3.017E-04

     HUBBARD ENERGY =    0.2559  (Ry)

     total cpu time spent up to now is       91.1 secs

     total energy              =    -741.52736727 Ry
     estimated scf accuracy    <       0.00000884 Ry

     total magnetization       =     0.00 Bohr mag/cell
     absolute magnetization    =     7.50 Bohr mag/cell

     iteration # 21     ecut=    70.00 Ry     beta= 0.20
     Davidson diagonalization with overlap

---- Real-time Memory Report at c_bands before calling an iterative solver
           207 MiB given to the printing process from OS
           129 MiB allocation reported by mallinfo(arena+hblkhd)
         13258 MiB available memory on the node where the printing process lives
------------------
     ethr =  5.53E-09,  avg # of iterations =  4.7

     =================== HUBBARD OCCUPATIONS ===================
     ------------------------ ATOM    1 ------------------------
     Tr[ns(  1)] (up, down, total) =   4.98064  1.32461  6.30525
     Atomic magnetic moment for atom   1 =   3.65602
     SPIN  1
     eigenvalues:
       0.993  0.993  0.998  0.998  0.999
     eigenvectors (columns):
      -0.024  0.989 -0.146 -0.003  0.000
      -0.105  0.057  0.418 -0.691 -0.577
       0.102  0.062  0.389  0.708 -0.577
      -0.989 -0.024 -0.003  0.146 -0.000
      -0.003  0.119  0.808  0.017  0.577
     occupation matrix ns (before diag.):
       0.993 -0.000 -0.000  0.000 -0.001
      -0.000  0.998  0.000 -0.000 -0.000
      -0.000  0.000  0.998  0.000 -0.000
       0.000 -0.000  0.000  0.993 -0.000
      -0.001 -0.000 -0.000 -0.000  0.998
     SPIN  2
     eigenvalues:
       0.046  0.110  0.110  0.529  0.529
     eigenvectors (columns):
       0.000 -0.679  0.684  0.264  0.029
       0.577  0.057  0.209 -0.317 -0.720
       0.577 -0.210 -0.055 -0.465  0.635
      -0.000  0.684  0.679 -0.029  0.264
      -0.577 -0.153  0.154 -0.782 -0.086
     occupation matrix ns (before diag.):
       0.139 -0.044 -0.044  0.000 -0.088
      -0.044  0.349 -0.151 -0.076  0.151
      -0.044 -0.151  0.349  0.076  0.151
       0.000 -0.076  0.076  0.139 -0.000
      -0.088  0.151  0.151 -0.000  0.349
     ------------------------ ATOM    2 ------------------------
     Tr[ns(  2)] (up, down, total) =   1.32630  4.98053  6.30683
     Atomic magnetic moment for atom   2 =  -3.65423
     SPIN  1
     eigenvalues:
       0.046  0.110  0.110  0.530  0.530
     eigenvectors (columns):
       0.000 -0.050 -0.963  0.264 -0.030
       0.577  0.182 -0.118 -0.313  0.722
       0.577 -0.193 -0.099 -0.469 -0.632
      -0.000  0.963 -0.050 -0.030 -0.264
      -0.577 -0.011 -0.216 -0.782  0.090
     occupation matrix ns (before diag.):
       0.139 -0.044 -0.044  0.000 -0.088
      -0.044  0.349 -0.152 -0.076  0.152
      -0.044 -0.152  0.349  0.076  0.152
       0.000 -0.076  0.076  0.139 -0.000
      -0.088  0.152  0.152 -0.000  0.349
     SPIN  2
     eigenvalues:
       0.993  0.993  0.998  0.998  0.999
     eigenvectors (columns):
      -0.022  0.989 -0.147 -0.003  0.000
      -0.105  0.058  0.417 -0.692 -0.577
       0.103  0.062  0.391  0.707 -0.577
      -0.989 -0.022 -0.003  0.147 -0.000
      -0.003  0.120  0.807  0.015  0.577
     occupation matrix ns (before diag.):
       0.993 -0.000 -0.000  0.000 -0.001
      -0.000  0.998  0.000 -0.000 -0.000
      -0.000  0.000  0.998  0.000 -0.000
       0.000 -0.000  0.000  0.993 -0.000
      -0.001 -0.000 -0.000 -0.000  0.998

     Number of occupied Hubbard levels =   12.6121

     negative rho (up, down):  3.002E-04 3.011E-04

     HUBBARD ENERGY =    0.2559  (Ry)

     total cpu time spent up to now is       95.5 secs

     total energy              =    -741.52736869 Ry
     estimated scf accuracy    <       0.00000112 Ry

     total magnetization       =     0.00 Bohr mag/cell
     absolute magnetization    =     7.50 Bohr mag/cell

     iteration # 22     ecut=    70.00 Ry     beta= 0.20
     Davidson diagonalization with overlap

---- Real-time Memory Report at c_bands before calling an iterative solver
           207 MiB given to the printing process from OS
           129 MiB allocation reported by mallinfo(arena+hblkhd)
         13293 MiB available memory on the node where the printing process lives
------------------
     ethr =  2.54E-09,  avg # of iterations =  2.0

     =================== HUBBARD OCCUPATIONS ===================
     ------------------------ ATOM    1 ------------------------
     Tr[ns(  1)] (up, down, total) =   4.98060  1.32555  6.30615
     Atomic magnetic moment for atom   1 =   3.65506
     SPIN  1
     eigenvalues:
       0.993  0.993  0.998  0.998  0.999
     eigenvectors (columns):
       0.367  0.919 -0.146  0.011  0.000
      -0.074  0.094  0.457  0.666 -0.577
       0.118  0.017  0.349 -0.729 -0.577
      -0.919  0.367 -0.011 -0.146 -0.000
       0.044  0.111  0.805 -0.062  0.577
     occupation matrix ns (before diag.):
       0.993 -0.000 -0.000  0.000 -0.001
      -0.000  0.998  0.000 -0.000 -0.000
      -0.000  0.000  0.998  0.000 -0.000
       0.000 -0.000  0.000  0.993 -0.000
      -0.001 -0.000 -0.000 -0.000  0.998
     SPIN  2
     eigenvalues:
       0.046  0.110  0.110  0.530  0.530
     eigenvectors (columns):
       0.000  0.769 -0.581  0.264 -0.029
       0.577 -0.027 -0.215 -0.318  0.720
       0.577  0.200  0.085 -0.465 -0.635
      -0.000 -0.581 -0.769 -0.029 -0.264
      -0.577  0.173 -0.131 -0.783  0.085
     occupation matrix ns (before diag.):
       0.139 -0.044 -0.044  0.000 -0.088
      -0.044  0.349 -0.151 -0.076  0.151
      -0.044 -0.151  0.349  0.076  0.151
       0.000 -0.076  0.076  0.139 -0.000
      -0.088  0.151  0.151 -0.000  0.349
     ------------------------ ATOM    2 ------------------------
     Tr[ns(  2)] (up, down, total) =   1.32551  4.98055  6.30607
     Atomic magnetic moment for atom   2 =  -3.65504
     SPIN  1
     eigenvalues:
       0.046  0.110  0.110  0.530  0.530
     eigenvectors (columns):
       0.000  0.103 -0.959  0.265 -0.021
       0.577 -0.175 -0.128 -0.339  0.711
       0.577  0.198 -0.088 -0.446 -0.649
      -0.000 -0.959 -0.103 -0.021 -0.265
      -0.577  0.023 -0.216 -0.785  0.062
     occupation matrix ns (before diag.):
       0.139 -0.044 -0.044  0.000 -0.088
      -0.044  0.349 -0.151 -0.076  0.151
      -0.044 -0.151  0.349  0.076  0.151
       0.000 -0.076  0.076  0.139 -0.000
      -0.088  0.151  0.151 -0.000  0.349
     SPIN  2
     eigenvalues:
       0.993  0.993  0.998  0.998  0.999
     eigenvectors (columns):
       0.158  0.976 -0.146 -0.008  0.000
      -0.093  0.076  0.443 -0.675 -0.577
       0.112  0.043  0.363  0.722 -0.577
      -0.976  0.158 -0.008  0.146 -0.000
       0.019  0.118  0.806  0.047  0.577
     occupation matrix ns (before diag.):
       0.993 -0.000 -0.000  0.000 -0.001
      -0.000  0.998  0.000 -0.000 -0.000
      -0.000  0.000  0.998  0.000 -0.000
       0.000 -0.000  0.000  0.993 -0.000
      -0.001 -0.000 -0.000 -0.000  0.998

     Number of occupied Hubbard levels =   12.6122

     negative rho (up, down):  3.004E-04 3.009E-04

     HUBBARD ENERGY =    0.2560  (Ry)

     total cpu time spent up to now is       99.4 secs

     total energy              =    -741.52736859 Ry
     estimated scf accuracy    <       0.00000103 Ry

     total magnetization       =     0.00 Bohr mag/cell
     absolute magnetization    =     7.50 Bohr mag/cell

     iteration # 23     ecut=    70.00 Ry     beta= 0.20
     Davidson diagonalization with overlap

---- Real-time Memory Report at c_bands before calling an iterative solver
           207 MiB given to the printing process from OS
           129 MiB allocation reported by mallinfo(arena+hblkhd)
         13140 MiB available memory on the node where the printing process lives
------------------
     ethr =  2.33E-09,  avg # of iterations =  3.1

     =================== HUBBARD OCCUPATIONS ===================
     ------------------------ ATOM    1 ------------------------
     Tr[ns(  1)] (up, down, total) =   4.98059  1.32552  6.30610
     Atomic magnetic moment for atom   1 =   3.65507
     SPIN  1
     eigenvalues:
       0.993  0.993  0.998  0.998  0.999
     eigenvectors (columns):
       0.289  0.946 -0.146  0.006  0.000
      -0.081  0.087  0.430  0.684 -0.577
       0.116  0.027  0.377 -0.714 -0.577
      -0.946  0.289 -0.006 -0.146 -0.000
       0.035  0.114  0.807 -0.031  0.577
     occupation matrix ns (before diag.):
       0.993 -0.000 -0.000  0.000 -0.001
      -0.000  0.998  0.000 -0.000 -0.000
      -0.000  0.000  0.998  0.000 -0.000
       0.000 -0.000  0.000  0.993 -0.000
      -0.001 -0.000 -0.000 -0.000  0.998
     SPIN  2
     eigenvalues:
       0.046  0.110  0.110  0.530  0.530
     eigenvectors (columns):
       0.000  0.624 -0.735  0.265  0.023
       0.577 -0.073 -0.204 -0.334 -0.713
       0.577  0.213  0.039 -0.450  0.646
      -0.000 -0.735 -0.624 -0.023  0.265
      -0.577  0.140 -0.165 -0.784 -0.067
     occupation matrix ns (before diag.):
       0.139 -0.044 -0.044  0.000 -0.088
      -0.044  0.349 -0.151 -0.076  0.151
      -0.044 -0.151  0.349  0.076  0.151
       0.000 -0.076  0.076  0.139 -0.000
      -0.088  0.151  0.151 -0.000  0.349
     ------------------------ ATOM    2 ------------------------
     Tr[ns(  2)] (up, down, total) =   1.32587  4.98055  6.30642
     Atomic magnetic moment for atom   2 =  -3.65469
     SPIN  1
     eigenvalues:
       0.046  0.110  0.110  0.530  0.530
     eigenvectors (columns):
       0.000 -0.907  0.328  0.264  0.026
       0.577 -0.038  0.213 -0.326 -0.717
       0.577 -0.166 -0.140 -0.458  0.640
      -0.000  0.328  0.907 -0.026  0.264
      -0.577 -0.204  0.074 -0.783 -0.076
     occupation matrix ns (before diag.):
       0.139 -0.044 -0.044  0.000 -0.088
      -0.044  0.349 -0.151 -0.076  0.151
      -0.044 -0.151  0.349  0.076  0.151
       0.000 -0.076  0.076  0.139 -0.000
      -0.088  0.151  0.151 -0.000  0.349
     SPIN  2
     eigenvalues:
       0.993  0.993  0.998  0.998  0.999
     eigenvectors (columns):
       0.139  0.979 -0.146  0.004  0.000
      -0.094  0.074  0.425  0.687 -0.577
       0.111  0.045  0.383 -0.711 -0.577
      -0.979  0.139 -0.004 -0.146 -0.000
       0.017  0.118  0.807 -0.024  0.577
     occupation matrix ns (before diag.):
       0.993 -0.000 -0.000  0.000 -0.001
      -0.000  0.998  0.000 -0.000 -0.000
      -0.000  0.000  0.998  0.000 -0.000
       0.000 -0.000  0.000  0.993 -0.000
      -0.001 -0.000 -0.000 -0.000  0.998

     Number of occupied Hubbard levels =   12.6125

     negative rho (up, down):  3.004E-04 3.009E-04

     HUBBARD ENERGY =    0.2560  (Ry)

     total cpu time spent up to now is      104.4 secs

     total energy              =    -741.52736878 Ry
     estimated scf accuracy    <       0.00000007 Ry

     total magnetization       =     0.00 Bohr mag/cell
     absolute magnetization    =     7.50 Bohr mag/cell

     iteration # 24     ecut=    70.00 Ry     beta= 0.20
     Davidson diagonalization with overlap

---- Real-time Memory Report at c_bands before calling an iterative solver
           207 MiB given to the printing process from OS
           129 MiB allocation reported by mallinfo(arena+hblkhd)
         13248 MiB available memory on the node where the printing process lives
------------------
     ethr =  1.64E-10,  avg # of iterations =  4.5

     =================== HUBBARD OCCUPATIONS ===================
     ------------------------ ATOM    1 ------------------------
     Tr[ns(  1)] (up, down, total) =   4.98058  1.32551  6.30610
     Atomic magnetic moment for atom   1 =   3.65507
     SPIN  1
     eigenvalues:
       0.993  0.993  0.998  0.998  0.999
     eigenvectors (columns):
       0.366  0.919 -0.146  0.006  0.000
      -0.074  0.094  0.433  0.682 -0.577
       0.118  0.017  0.374 -0.716 -0.577
      -0.919  0.366 -0.006 -0.146 -0.000
       0.044  0.111  0.807 -0.034  0.577
     occupation matrix ns (before diag.):
       0.993 -0.000 -0.000  0.000 -0.001
      -0.000  0.998  0.000 -0.000 -0.000
      -0.000  0.000  0.998  0.000 -0.000
       0.000 -0.000  0.000  0.993 -0.000
      -0.001 -0.000 -0.000 -0.000  0.998
     SPIN  2
     eigenvalues:
       0.046  0.110  0.110  0.530  0.530
     eigenvectors (columns):
       0.000  0.589 -0.763  0.265  0.022
       0.577 -0.083 -0.201 -0.336 -0.712
       0.577  0.215  0.029 -0.448  0.647
      -0.000 -0.763 -0.589 -0.022  0.265
      -0.577  0.132 -0.172 -0.785 -0.064
     occupation matrix ns (before diag.):
       0.139 -0.044 -0.044  0.000 -0.088
      -0.044  0.349 -0.151 -0.076  0.151
      -0.044 -0.151  0.349  0.076  0.151
       0.000 -0.076  0.076  0.139 -0.000
      -0.088  0.151  0.151 -0.000  0.349
     ------------------------ ATOM    2 ------------------------
     Tr[ns(  2)] (up, down, total) =   1.32581  4.98056  6.30636
     Atomic magnetic moment for atom   2 =  -3.65475
     SPIN  1
     eigenvalues:
       0.046  0.110  0.110  0.530  0.530
     eigenvectors (columns):
       0.000  0.270 -0.926  0.263 -0.035
       0.577 -0.150 -0.157 -0.301  0.727
       0.577  0.211 -0.052 -0.479 -0.624
      -0.000 -0.926 -0.270 -0.035 -0.263
      -0.577  0.061 -0.208 -0.780  0.103
     occupation matrix ns (before diag.):
       0.139 -0.044 -0.044  0.000 -0.088
      -0.044  0.349 -0.151 -0.076  0.151
      -0.044 -0.151  0.349  0.076  0.151
       0.000 -0.076  0.076  0.139 -0.000
      -0.088  0.151  0.151 -0.000  0.349
     SPIN  2
     eigenvalues:
       0.993  0.993  0.998  0.998  0.999
     eigenvectors (columns):
       0.351  0.925 -0.146  0.014  0.000
      -0.076  0.093  0.468  0.658 -0.577
       0.118  0.019  0.336 -0.735 -0.577
      -0.925  0.351 -0.014 -0.146 -0.000
       0.042  0.112  0.804 -0.076  0.577
     occupation matrix ns (before diag.):
       0.993 -0.000 -0.000  0.000 -0.001
      -0.000  0.998  0.000 -0.000 -0.000
      -0.000  0.000  0.998  0.000 -0.000
       0.000 -0.000  0.000  0.993 -0.000
      -0.001 -0.000 -0.000 -0.000  0.998

     Number of occupied Hubbard levels =   12.6125

     negative rho (up, down):  3.005E-04 3.008E-04

     HUBBARD ENERGY =    0.2560  (Ry)

     total cpu time spent up to now is      110.3 secs

     total energy              =    -741.52736881 Ry
     estimated scf accuracy    <       0.00000006 Ry

     total magnetization       =     0.00 Bohr mag/cell
     absolute magnetization    =     7.50 Bohr mag/cell

     iteration # 25     ecut=    70.00 Ry     beta= 0.20
     Davidson diagonalization with overlap

---- Real-time Memory Report at c_bands before calling an iterative solver
           207 MiB given to the printing process from OS
           129 MiB allocation reported by mallinfo(arena+hblkhd)
         13248 MiB available memory on the node where the printing process lives
------------------
     ethr =  1.35E-10,  avg # of iterations =  1.8

     =================== HUBBARD OCCUPATIONS ===================
     ------------------------ ATOM    1 ------------------------
     Tr[ns(  1)] (up, down, total) =   4.98058  1.32571  6.30628
     Atomic magnetic moment for atom   1 =   3.65487
     SPIN  1
     eigenvalues:
       0.993  0.993  0.998  0.998  0.999
     eigenvectors (columns):
       0.325  0.934 -0.146  0.005  0.000
      -0.078  0.090  0.427  0.686 -0.577
       0.117  0.022  0.381 -0.712 -0.577
      -0.934  0.325 -0.005 -0.146 -0.000
       0.039  0.113  0.807 -0.026  0.577
     occupation matrix ns (before diag.):
       0.993 -0.000 -0.000  0.000 -0.001
      -0.000  0.998  0.000 -0.000 -0.000
      -0.000  0.000  0.998  0.000 -0.000
       0.000 -0.000  0.000  0.993 -0.000
      -0.001 -0.000 -0.000 -0.000  0.998
     SPIN  2
     eigenvalues:
       0.046  0.110  0.110  0.530  0.530
     eigenvectors (columns):
       0.000  0.810 -0.522  0.265  0.019
       0.577 -0.011 -0.217 -0.344 -0.708
       0.577  0.193  0.099 -0.441  0.652
      -0.000 -0.522 -0.810 -0.019  0.265
      -0.577  0.182 -0.117 -0.785 -0.056
     occupation matrix ns (before diag.):
       0.139 -0.044 -0.044  0.000 -0.088
      -0.044  0.349 -0.151 -0.076  0.151
      -0.044 -0.151  0.349  0.076  0.151
       0.000 -0.076  0.076  0.139 -0.000
      -0.088  0.151  0.151 -0.000  0.349
     ------------------------ ATOM    2 ------------------------
     Tr[ns(  2)] (up, down, total) =   1.32564  4.98056  6.30620
     Atomic magnetic moment for atom   2 =  -3.65492
     SPIN  1
     eigenvalues:
       0.046  0.110  0.110  0.530  0.530
     eigenvectors (columns):
       0.000 -0.954  0.139  0.263  0.040
       0.577 -0.080  0.201 -0.287 -0.733
       0.577 -0.134 -0.170 -0.492  0.615
      -0.000  0.139  0.954 -0.040  0.263
      -0.577 -0.215  0.031 -0.778 -0.118
     occupation matrix ns (before diag.):
       0.139 -0.044 -0.044  0.000 -0.088
      -0.044  0.349 -0.151 -0.076  0.151
      -0.044 -0.151  0.349  0.076  0.151
       0.000 -0.076  0.076  0.139 -0.000
      -0.088  0.151  0.151 -0.000  0.349
     SPIN  2
     eigenvalues:
       0.993  0.993  0.998  0.998  0.999
     eigenvectors (columns):
       0.096  0.985 -0.146 -0.004  0.000
      -0.097  0.069  0.422 -0.689 -0.577
       0.109  0.049  0.386  0.710 -0.577
      -0.985  0.096 -0.004  0.146 -0.000
       0.012  0.119  0.807  0.021  0.577
     occupation matrix ns (before diag.):
       0.993 -0.000 -0.000  0.000 -0.001
      -0.000  0.998  0.000 -0.000 -0.000
      -0.000  0.000  0.998  0.000 -0.000
       0.000 -0.000  0.000  0.993 -0.000
      -0.001 -0.000 -0.000 -0.000  0.998

     Number of occupied Hubbard levels =   12.6125

     negative rho (up, down):  3.006E-04 3.007E-04

     HUBBARD ENERGY =    0.2560  (Ry)

     total cpu time spent up to now is      114.7 secs

     total energy              =    -741.52736884 Ry
     estimated scf accuracy    <       0.00000007 Ry

     total magnetization       =     0.00 Bohr mag/cell
     absolute magnetization    =     7.50 Bohr mag/cell

     iteration # 26     ecut=    70.00 Ry     beta= 0.20
     Davidson diagonalization with overlap

---- Real-time Memory Report at c_bands before calling an iterative solver
           207 MiB given to the printing process from OS
           129 MiB allocation reported by mallinfo(arena+hblkhd)
         13185 MiB available memory on the node where the printing process lives
------------------
     ethr =  1.35E-10,  avg # of iterations =  2.5

     =================== HUBBARD OCCUPATIONS ===================
     ------------------------ ATOM    1 ------------------------
     Tr[ns(  1)] (up, down, total) =   4.98057  1.32573  6.30631
     Atomic magnetic moment for atom   1 =   3.65484
     SPIN  1
     eigenvalues:
       0.993  0.993  0.998  0.998  0.999
     eigenvectors (columns):
       0.371  0.917 -0.146 -0.009  0.000
      -0.074  0.094  0.446 -0.674 -0.577
       0.118  0.017  0.360  0.723 -0.577
      -0.917  0.371 -0.009  0.146 -0.000
       0.045  0.111  0.806  0.049  0.577
     occupation matrix ns (before diag.):
       0.993 -0.000 -0.000  0.000 -0.001
      -0.000  0.998  0.000 -0.000 -0.000
      -0.000  0.000  0.998  0.000 -0.000
       0.000 -0.000  0.000  0.993 -0.000
      -0.001 -0.000 -0.000 -0.000  0.998
     SPIN  2
     eigenvalues:
       0.046  0.110  0.110  0.530  0.530
     eigenvectors (columns):
       0.000 -0.774  0.575  0.265  0.021
       0.577  0.025  0.215 -0.338 -0.711
       0.577 -0.199 -0.086 -0.447  0.648
      -0.000  0.575  0.774 -0.021  0.265
      -0.577 -0.174  0.129 -0.785 -0.063
     occupation matrix ns (before diag.):
       0.139 -0.044 -0.044  0.000 -0.088
      -0.044  0.349 -0.151 -0.076  0.151
      -0.044 -0.151  0.349  0.076  0.151
       0.000 -0.076  0.076  0.139 -0.000
      -0.088  0.151  0.151 -0.000  0.349
     ------------------------ ATOM    2 ------------------------
     Tr[ns(  2)] (up, down, total) =   1.32550  4.98057  6.30607
     Atomic magnetic moment for atom   2 =  -3.65507
     SPIN  1
     eigenvalues:
       0.046  0.110  0.110  0.530  0.530
     eigenvectors (columns):
       0.000 -0.844 -0.467  0.265 -0.021
       0.577 -0.004 -0.217 -0.339  0.711
       0.577 -0.186  0.112 -0.446 -0.649
      -0.000  0.467 -0.844 -0.021 -0.265
      -0.577 -0.190 -0.105 -0.785  0.062
     occupation matrix ns (before diag.):
       0.139 -0.044 -0.044  0.000 -0.088
      -0.044  0.349 -0.151 -0.076  0.151
      -0.044 -0.151  0.349  0.076  0.151
       0.000 -0.076  0.076  0.139 -0.000
      -0.088  0.151  0.151 -0.000  0.349
     SPIN  2
     eigenvalues:
       0.993  0.993  0.998  0.998  0.999
     eigenvectors (columns):
       0.419  0.896 -0.146  0.009  0.000
      -0.068  0.098  0.447  0.673 -0.577
       0.119  0.010  0.359 -0.723 -0.577
      -0.896  0.419 -0.009 -0.146 -0.000
       0.051  0.108  0.806 -0.051  0.577
     occupation matrix ns (before diag.):
       0.993 -0.000 -0.000  0.000 -0.001
      -0.000  0.998  0.000 -0.000 -0.000
      -0.000  0.000  0.998  0.000 -0.000
       0.000 -0.000  0.000  0.993 -0.000
      -0.001 -0.000 -0.000 -0.000  0.998

     Number of occupied Hubbard levels =   12.6124

     negative rho (up, down):  3.007E-04 3.007E-04

     HUBBARD ENERGY =    0.2560  (Ry)

     total cpu time spent up to now is      118.9 secs

     total energy              =    -741.52736884 Ry
     estimated scf accuracy    <       0.00000013 Ry

     total magnetization       =    -0.00 Bohr mag/cell
     absolute magnetization    =     7.50 Bohr mag/cell

     iteration # 27     ecut=    70.00 Ry     beta= 0.20
     Davidson diagonalization with overlap

---- Real-time Memory Report at c_bands before calling an iterative solver
           207 MiB given to the printing process from OS
           129 MiB allocation reported by mallinfo(arena+hblkhd)
         13247 MiB available memory on the node where the printing process lives
------------------
     ethr =  1.35E-10,  avg # of iterations =  1.2

     =================== HUBBARD OCCUPATIONS ===================
     ------------------------ ATOM    1 ------------------------
     Tr[ns(  1)] (up, down, total) =   4.98057  1.32577  6.30635
     Atomic magnetic moment for atom   1 =   3.65480
     SPIN  1
     eigenvalues:
       0.993  0.993  0.998  0.998  0.999
     eigenvectors (columns):
       0.387  0.911 -0.146 -0.008  0.000
      -0.072  0.095  0.443 -0.676 -0.577
       0.119  0.015  0.364  0.721 -0.577
      -0.911  0.387 -0.008  0.146 -0.000
       0.047  0.110  0.806  0.046  0.577
     occupation matrix ns (before diag.):
       0.993 -0.000 -0.000  0.000 -0.001
      -0.000  0.998  0.000 -0.000 -0.000
      -0.000  0.000  0.998  0.000 -0.000
       0.000 -0.000  0.000  0.993 -0.000
      -0.001 -0.000 -0.000 -0.000  0.998
     SPIN  2
     eigenvalues:
       0.046  0.110  0.110  0.530  0.530
     eigenvectors (columns):
       0.000  0.356 -0.896  0.264 -0.025
       0.577 -0.134 -0.170 -0.328  0.715
       0.577  0.215 -0.031 -0.455 -0.642
      -0.000 -0.896 -0.356 -0.025 -0.264
      -0.577  0.080 -0.201 -0.784  0.073
     occupation matrix ns (before diag.):
       0.139 -0.044 -0.044  0.000 -0.088
      -0.044  0.349 -0.151 -0.076  0.151
      -0.044 -0.151  0.349  0.076  0.151
       0.000 -0.076  0.076  0.139 -0.000
      -0.088  0.151  0.151 -0.000  0.349
     ------------------------ ATOM    2 ------------------------
     Tr[ns(  2)] (up, down, total) =   1.32550  4.98057  6.30607
     Atomic magnetic moment for atom   2 =  -3.65507
     SPIN  1
     eigenvalues:
       0.046  0.110  0.110  0.530  0.530
     eigenvectors (columns):
       0.000 -0.066 -0.962  0.264 -0.025
       0.577 -0.195 -0.095 -0.327  0.716
       0.577  0.180 -0.121 -0.457 -0.641
      -0.000 -0.962  0.066 -0.025 -0.264
      -0.577 -0.015 -0.216 -0.784  0.075
     occupation matrix ns (before diag.):
       0.139 -0.044 -0.044  0.000 -0.088
      -0.044  0.349 -0.151 -0.076  0.151
      -0.044 -0.151  0.349  0.076  0.151
       0.000 -0.076  0.076  0.139 -0.000
      -0.088  0.151  0.151 -0.000  0.349
     SPIN  2
     eigenvalues:
       0.993  0.993  0.998  0.998  0.999
     eigenvectors (columns):
       0.509  0.848 -0.146  0.012  0.000
      -0.058  0.104  0.458  0.666 -0.577
       0.119 -0.002  0.348 -0.729 -0.577
      -0.848  0.509 -0.012 -0.146 -0.000
       0.061  0.102  0.805 -0.064  0.577
     occupation matrix ns (before diag.):
       0.993 -0.000 -0.000  0.000 -0.001
      -0.000  0.998  0.000 -0.000 -0.000
      -0.000  0.000  0.998  0.000 -0.000
       0.000 -0.000  0.000  0.993 -0.000
      -0.001 -0.000 -0.000 -0.000  0.998

     Number of occupied Hubbard levels =   12.6124

     negative rho (up, down):  3.007E-04 3.006E-04

     HUBBARD ENERGY =    0.2560  (Ry)

     total cpu time spent up to now is      122.7 secs

     total energy              =    -741.52736884 Ry
     estimated scf accuracy    <       0.00000010 Ry

     total magnetization       =    -0.00 Bohr mag/cell
     absolute magnetization    =     7.50 Bohr mag/cell

     iteration # 28     ecut=    70.00 Ry     beta= 0.20
     Davidson diagonalization with overlap

---- Real-time Memory Report at c_bands before calling an iterative solver
           207 MiB given to the printing process from OS
           129 MiB allocation reported by mallinfo(arena+hblkhd)
         13115 MiB available memory on the node where the printing process lives
------------------
     ethr =  1.35E-10,  avg # of iterations =  1.2

     =================== HUBBARD OCCUPATIONS ===================
     ------------------------ ATOM    1 ------------------------
     Tr[ns(  1)] (up, down, total) =   4.98057  1.32578  6.30635
     Atomic magnetic moment for atom   1 =   3.65479
     SPIN  1
     eigenvalues:
       0.993  0.993  0.998  0.998  0.999
     eigenvectors (columns):
       0.334  0.931 -0.146  0.011  0.000
      -0.077  0.091  0.455  0.667 -0.577
       0.118  0.021  0.351 -0.728 -0.577
      -0.931  0.334 -0.011 -0.146 -0.000
       0.040  0.113  0.805 -0.060  0.577
     occupation matrix ns (before diag.):
       0.993 -0.000 -0.000  0.000 -0.001
      -0.000  0.998  0.000 -0.000 -0.000
      -0.000  0.000  0.998  0.000 -0.000
       0.000 -0.000  0.000  0.993 -0.000
      -0.001 -0.000 -0.000 -0.000  0.998
     SPIN  2
     eigenvalues:
       0.046  0.110  0.110  0.530  0.530
     eigenvectors (columns):
       0.000 -0.565 -0.781  0.262 -0.044
       0.577  0.089 -0.198 -0.276  0.737
       0.577 -0.216  0.022 -0.500 -0.608
      -0.000  0.781 -0.565 -0.044 -0.262
      -0.577 -0.127 -0.176 -0.777  0.129
     occupation matrix ns (before diag.):
       0.139 -0.044 -0.044  0.000 -0.088
      -0.044  0.349 -0.151 -0.076  0.151
      -0.044 -0.151  0.349  0.076  0.151
       0.000 -0.076  0.076  0.139 -0.000
      -0.088  0.151  0.151 -0.000  0.349
     ------------------------ ATOM    2 ------------------------
     Tr[ns(  2)] (up, down, total) =   1.32553  4.98057  6.30610
     Atomic magnetic moment for atom   2 =  -3.65504
     SPIN  1
     eigenvalues:
       0.046  0.110  0.110  0.530  0.530
     eigenvectors (columns):
       0.000  0.761  0.592  0.265 -0.022
       0.577 -0.030  0.215 -0.335  0.712
       0.577  0.201 -0.082 -0.450 -0.646
      -0.000 -0.592  0.761 -0.022 -0.265
      -0.577  0.171  0.133 -0.784  0.066
     occupation matrix ns (before diag.):
       0.139 -0.044 -0.044  0.000 -0.088
      -0.044  0.349 -0.151 -0.076  0.151
      -0.044 -0.151  0.349  0.076  0.151
       0.000 -0.076  0.076  0.139 -0.000
      -0.088  0.151  0.151 -0.000  0.349
     SPIN  2
     eigenvalues:
       0.993  0.993  0.998  0.998  0.999
     eigenvectors (columns):
       0.415  0.898 -0.146  0.006  0.000
      -0.069  0.098  0.433  0.682 -0.577
       0.119  0.011  0.374 -0.716 -0.577
      -0.898  0.415 -0.006 -0.146 -0.000
       0.050  0.108  0.807 -0.034  0.577
     occupation matrix ns (before diag.):
       0.993 -0.000 -0.000  0.000 -0.001
      -0.000  0.998  0.000 -0.000 -0.000
      -0.000  0.000  0.998  0.000 -0.000
       0.000 -0.000  0.000  0.993 -0.000
      -0.001 -0.000 -0.000 -0.000  0.998

     Number of occupied Hubbard levels =   12.6124

     negative rho (up, down):  3.006E-04 3.006E-04

     HUBBARD ENERGY =    0.2560  (Ry)

     total cpu time spent up to now is      126.5 secs

     total energy              =    -741.52736883 Ry
     estimated scf accuracy    <       0.00000005 Ry

     total magnetization       =    -0.00 Bohr mag/cell
     absolute magnetization    =     7.50 Bohr mag/cell

     iteration # 29     ecut=    70.00 Ry     beta= 0.20
     Davidson diagonalization with overlap

---- Real-time Memory Report at c_bands before calling an iterative solver
           207 MiB given to the printing process from OS
           129 MiB allocation reported by mallinfo(arena+hblkhd)
         13274 MiB available memory on the node where the printing process lives
------------------
     ethr =  1.23E-10,  avg # of iterations =  1.3

     =================== HUBBARD OCCUPATIONS ===================
     ------------------------ ATOM    1 ------------------------
     Tr[ns(  1)] (up, down, total) =   4.98057  1.32577  6.30634
     Atomic magnetic moment for atom   1 =   3.65480
     SPIN  1
     eigenvalues:
       0.993  0.993  0.998  0.998  0.999
     eigenvectors (columns):
       0.175  0.974 -0.146  0.003  0.000
      -0.091  0.077  0.420  0.690 -0.577
       0.112  0.041  0.388 -0.709 -0.577
      -0.974  0.175 -0.003 -0.146 -0.000
       0.021  0.118  0.807 -0.018  0.577
     occupation matrix ns (before diag.):
       0.993 -0.000 -0.000  0.000 -0.001
      -0.000  0.998  0.000 -0.000 -0.000
      -0.000  0.000  0.998  0.000 -0.000
       0.000 -0.000  0.000  0.993 -0.000
      -0.001 -0.000 -0.000 -0.000  0.998
     SPIN  2
     eigenvalues:
       0.046  0.110  0.110  0.530  0.530
     eigenvectors (columns):
       0.000 -0.242 -0.933  0.264 -0.032
       0.577  0.155 -0.152 -0.307  0.725
       0.577 -0.209 -0.058 -0.474 -0.628
      -0.000  0.933 -0.242 -0.032 -0.264
      -0.577 -0.054 -0.210 -0.781  0.096
     occupation matrix ns (before diag.):
       0.139 -0.044 -0.044  0.000 -0.088
      -0.044  0.349 -0.151 -0.076  0.151
      -0.044 -0.151  0.349  0.076  0.151
       0.000 -0.076  0.076  0.139 -0.000
      -0.088  0.151  0.151 -0.000  0.349
     ------------------------ ATOM    2 ------------------------
     Tr[ns(  2)] (up, down, total) =   1.32558  4.98057  6.30615
     Atomic magnetic moment for atom   2 =  -3.65498
     SPIN  1
     eigenvalues:
       0.046  0.110  0.110  0.530  0.530
     eigenvectors (columns):
       0.000 -0.856 -0.444  0.264 -0.030
       0.577 -0.010 -0.217 -0.313  0.722
       0.577 -0.183  0.117 -0.469 -0.632
      -0.000  0.444 -0.856 -0.030 -0.264
      -0.577 -0.192 -0.100 -0.782  0.090
     occupation matrix ns (before diag.):
       0.139 -0.044 -0.044  0.000 -0.088
      -0.044  0.349 -0.151 -0.076  0.151
      -0.044 -0.151  0.349  0.076  0.151
       0.000 -0.076  0.076  0.139 -0.000
      -0.088  0.151  0.151 -0.000  0.349
     SPIN  2
     eigenvalues:
       0.993  0.993  0.998  0.998  0.999
     eigenvectors (columns):
       0.464  0.874 -0.146  0.004  0.000
      -0.063  0.101  0.424  0.687 -0.577
       0.119  0.004  0.383 -0.711 -0.577
      -0.874  0.464 -0.004 -0.146 -0.000
       0.056  0.106  0.807 -0.024  0.577
     occupation matrix ns (before diag.):
       0.993 -0.000 -0.000  0.000 -0.001
      -0.000  0.998  0.000 -0.000 -0.000
      -0.000  0.000  0.998  0.000 -0.000
       0.000 -0.000  0.000  0.993 -0.000
      -0.001 -0.000 -0.000 -0.000  0.998

     Number of occupied Hubbard levels =   12.6125

     negative rho (up, down):  3.006E-04 3.006E-04

     HUBBARD ENERGY =    0.2560  (Ry)

     total cpu time spent up to now is      130.5 secs

     total energy              =    -741.52736883 Ry
     estimated scf accuracy    <       0.00000003 Ry

     total magnetization       =    -0.00 Bohr mag/cell
     absolute magnetization    =     7.50 Bohr mag/cell

     iteration # 30     ecut=    70.00 Ry     beta= 0.20
     Davidson diagonalization with overlap

---- Real-time Memory Report at c_bands before calling an iterative solver
           207 MiB given to the printing process from OS
           129 MiB allocation reported by mallinfo(arena+hblkhd)
         13142 MiB available memory on the node where the printing process lives
------------------
     ethr =  6.12E-11,  avg # of iterations =  1.2

     =================== HUBBARD OCCUPATIONS ===================
     ------------------------ ATOM    1 ------------------------
     Tr[ns(  1)] (up, down, total) =   4.98057  1.32578  6.30634
     Atomic magnetic moment for atom   1 =   3.65479
     SPIN  1
     eigenvalues:
       0.993  0.993  0.998  0.998  0.999
     eigenvectors (columns):
       0.305  0.941 -0.146  0.006  0.000
      -0.080  0.089  0.433  0.682 -0.577
       0.117  0.025  0.374 -0.716 -0.577
      -0.941  0.305 -0.006 -0.146 -0.000
       0.037  0.114  0.807 -0.034  0.577
     occupation matrix ns (before diag.):
       0.993 -0.000 -0.000  0.000 -0.001
      -0.000  0.998  0.000 -0.000 -0.000
      -0.000  0.000  0.998  0.000 -0.000
       0.000 -0.000  0.000  0.993 -0.000
      -0.001 -0.000 -0.000 -0.000  0.998
     SPIN  2
     eigenvalues:
       0.046  0.110  0.110  0.530  0.530
     eigenvectors (columns):
       0.000 -0.093 -0.960  0.264 -0.024
       0.577  0.177 -0.126 -0.330  0.714
       0.577 -0.197 -0.090 -0.454 -0.643
      -0.000  0.960 -0.093 -0.024 -0.264
      -0.577 -0.021 -0.216 -0.784  0.071
     occupation matrix ns (before diag.):
       0.139 -0.044 -0.044  0.000 -0.088
      -0.044  0.349 -0.151 -0.076  0.151
      -0.044 -0.151  0.349  0.076  0.151
       0.000 -0.076  0.076  0.139 -0.000
      -0.088  0.151  0.151 -0.000  0.349
     ------------------------ ATOM    2 ------------------------
     Tr[ns(  2)] (up, down, total) =   1.32559  4.98057  6.30616
     Atomic magnetic moment for atom   2 =  -3.65498
     SPIN  1
     eigenvalues:
       0.046  0.110  0.110  0.530  0.530
     eigenvectors (columns):
       0.000  0.064 -0.962  0.262 -0.041
       0.577 -0.180 -0.121 -0.284  0.734
       0.577  0.195 -0.096 -0.494 -0.613
      -0.000 -0.962 -0.064 -0.041 -0.262
      -0.577  0.014 -0.216 -0.778  0.122
     occupation matrix ns (before diag.):
       0.139 -0.044 -0.044  0.000 -0.088
      -0.044  0.349 -0.151 -0.076  0.151
      -0.044 -0.151  0.349  0.076  0.151
       0.000 -0.076  0.076  0.139 -0.000
      -0.088  0.151  0.151 -0.000  0.349
     SPIN  2
     eigenvalues:
       0.993  0.993  0.998  0.998  0.999
     eigenvectors (columns):
       0.491  0.859 -0.146  0.006  0.000
      -0.060  0.103  0.433  0.682 -0.577
       0.119  0.000  0.374 -0.716 -0.577
      -0.859  0.491 -0.006 -0.146 -0.000
       0.059  0.104  0.807 -0.034  0.577
     occupation matrix ns (before diag.):
       0.993 -0.000 -0.000  0.000 -0.001
      -0.000  0.998  0.000 -0.000 -0.000
      -0.000  0.000  0.998  0.000 -0.000
       0.000 -0.000  0.000  0.993 -0.000
      -0.001 -0.000 -0.000 -0.000  0.998

     Number of occupied Hubbard levels =   12.6125

     negative rho (up, down):  3.006E-04 3.006E-04

     HUBBARD ENERGY =    0.2560  (Ry)

     total cpu time spent up to now is      134.0 secs

     total energy              =    -741.52736883 Ry
     estimated scf accuracy    <       0.00000002 Ry

     total magnetization       =    -0.00 Bohr mag/cell
     absolute magnetization    =     7.50 Bohr mag/cell

     iteration # 31     ecut=    70.00 Ry     beta= 0.20
     Davidson diagonalization with overlap

---- Real-time Memory Report at c_bands before calling an iterative solver
           207 MiB given to the printing process from OS
           129 MiB allocation reported by mallinfo(arena+hblkhd)
         13275 MiB available memory on the node where the printing process lives
------------------
     ethr =  4.83E-11,  avg # of iterations =  1.3

     =================== HUBBARD OCCUPATIONS ===================
     ------------------------ ATOM    1 ------------------------
     Tr[ns(  1)] (up, down, total) =   4.98057  1.32573  6.30630
     Atomic magnetic moment for atom   1 =   3.65484
     SPIN  1
     eigenvalues:
       0.993  0.993  0.998  0.998  0.999
     eigenvectors (columns):
       0.231  0.962 -0.146 -0.007  0.000
      -0.087  0.082  0.436 -0.680 -0.577
       0.115  0.034  0.371  0.717 -0.577
      -0.962  0.231 -0.007  0.146 -0.000
       0.028  0.116  0.807  0.037  0.577
     occupation matrix ns (before diag.):
       0.993 -0.000 -0.000  0.000 -0.001
      -0.000  0.998  0.000 -0.000 -0.000
      -0.000  0.000  0.998  0.000 -0.000
       0.000 -0.000  0.000  0.993 -0.000
      -0.001 -0.000 -0.000 -0.000  0.998
     SPIN  2
     eigenvalues:
       0.046  0.110  0.110  0.530  0.530
     eigenvectors (columns):
       0.000  0.763 -0.589  0.264  0.030
       0.577 -0.029 -0.215 -0.315 -0.722
       0.577  0.201  0.082 -0.467  0.633
      -0.000 -0.589 -0.763 -0.030  0.264
      -0.577  0.172 -0.133 -0.782 -0.088
     occupation matrix ns (before diag.):
       0.139 -0.044 -0.044  0.000 -0.088
      -0.044  0.349 -0.151 -0.076  0.151
      -0.044 -0.151  0.349  0.076  0.151
       0.000 -0.076  0.076  0.139 -0.000
      -0.088  0.151  0.151 -0.000  0.349
     ------------------------ ATOM    2 ------------------------
     Tr[ns(  2)] (up, down, total) =   1.32564  4.98057  6.30620
     Atomic magnetic moment for atom   2 =  -3.65493
     SPIN  1
     eigenvalues:
       0.046  0.110  0.110  0.530  0.530
     eigenvectors (columns):
       0.000  0.942 -0.207  0.265  0.022
       0.577  0.065 -0.207 -0.337 -0.711
       0.577  0.146  0.160 -0.448  0.648
      -0.000 -0.207 -0.942 -0.022  0.265
      -0.577  0.212 -0.047 -0.785 -0.064
     occupation matrix ns (before diag.):
       0.139 -0.044 -0.044  0.000 -0.088
      -0.044  0.349 -0.151 -0.076  0.151
      -0.044 -0.151  0.349  0.076  0.151
       0.000 -0.076  0.076  0.139 -0.000
      -0.088  0.151  0.151 -0.000  0.349
     SPIN  2
     eigenvalues:
       0.993  0.993  0.998  0.998  0.999
     eigenvectors (columns):
       0.459  0.876 -0.146  0.010  0.000
      -0.064  0.101  0.452  0.669 -0.577
       0.119  0.005  0.354 -0.726 -0.577
      -0.876  0.459 -0.010 -0.146 -0.000
       0.055  0.106  0.806 -0.057  0.577
     occupation matrix ns (before diag.):
       0.993 -0.000 -0.000  0.000 -0.001
      -0.000  0.998  0.000 -0.000 -0.000
      -0.000  0.000  0.998  0.000 -0.000
       0.000 -0.000  0.000  0.993 -0.000
      -0.001 -0.000 -0.000 -0.000  0.998

     Number of occupied Hubbard levels =   12.6125

     negative rho (up, down):  3.006E-04 3.006E-04

     HUBBARD ENERGY =    0.2560  (Ry)

     total cpu time spent up to now is      138.3 secs

     total energy              =    -741.52736883 Ry
     estimated scf accuracy    <       0.00000001 Ry

     total magnetization       =    -0.00 Bohr mag/cell
     absolute magnetization    =     7.50 Bohr mag/cell

     iteration # 32     ecut=    70.00 Ry     beta= 0.20
     Davidson diagonalization with overlap

---- Real-time Memory Report at c_bands before calling an iterative solver
           207 MiB given to the printing process from OS
           129 MiB allocation reported by mallinfo(arena+hblkhd)
         13263 MiB available memory on the node where the printing process lives
------------------
     ethr =  2.84E-11,  avg # of iterations =  1.7

     =================== HUBBARD OCCUPATIONS ===================
     ------------------------ ATOM    1 ------------------------
     Tr[ns(  1)] (up, down, total) =   4.98057  1.32576  6.30632
     Atomic magnetic moment for atom   1 =   3.65481
     SPIN  1
     eigenvalues:
       0.993  0.993  0.998  0.998  0.999
     eigenvectors (columns):
       0.225  0.963 -0.146 -0.010  0.000
      -0.087  0.082  0.450 -0.671 -0.577
       0.114  0.035  0.356  0.725 -0.577
      -0.963  0.225 -0.010  0.146 -0.000
       0.027  0.116  0.806  0.054  0.577
     occupation matrix ns (before diag.):
       0.993 -0.000 -0.000  0.000 -0.001
      -0.000  0.998  0.000 -0.000 -0.000
      -0.000  0.000  0.998  0.000 -0.000
       0.000 -0.000  0.000  0.993 -0.000
      -0.001 -0.000 -0.000 -0.000  0.998
     SPIN  2
     eigenvalues:
       0.046  0.110  0.110  0.530  0.530
     eigenvectors (columns):
       0.000  0.212 -0.940  0.265 -0.020
       0.577 -0.159 -0.147 -0.342  0.709
       0.577  0.207 -0.064 -0.443 -0.651
      -0.000 -0.940 -0.212 -0.020 -0.265
      -0.577  0.048 -0.212 -0.785  0.058
     occupation matrix ns (before diag.):
       0.139 -0.044 -0.044  0.000 -0.088
      -0.044  0.349 -0.151 -0.076  0.151
      -0.044 -0.151  0.349  0.076  0.151
       0.000 -0.076  0.076  0.139 -0.000
      -0.088  0.151  0.151 -0.000  0.349
     ------------------------ ATOM    2 ------------------------
     Tr[ns(  2)] (up, down, total) =   1.32561  4.98057  6.30618
     Atomic magnetic moment for atom   2 =  -3.65496
     SPIN  1
     eigenvalues:
       0.046  0.110  0.110  0.530  0.530
     eigenvectors (columns):
       0.000 -0.357 -0.896  0.263 -0.037
       0.577  0.134 -0.170 -0.294  0.730
       0.577 -0.215 -0.031 -0.485 -0.620
      -0.000  0.896 -0.357 -0.037 -0.263
      -0.577 -0.080 -0.201 -0.779  0.110
     occupation matrix ns (before diag.):
       0.139 -0.044 -0.044  0.000 -0.088
      -0.044  0.349 -0.151 -0.076  0.151
      -0.044 -0.151  0.349  0.076  0.151
       0.000 -0.076  0.076  0.139 -0.000
      -0.088  0.151  0.151 -0.000  0.349
     SPIN  2
     eigenvalues:
       0.993  0.993  0.998  0.998  0.999
     eigenvectors (columns):
      -0.385  0.911 -0.146 -0.002  0.000
       0.072  0.095  0.413 -0.694 -0.577
      -0.119  0.015  0.395  0.704 -0.577
       0.911  0.385 -0.002  0.146 -0.000
      -0.046  0.110  0.808  0.010  0.577
     occupation matrix ns (before diag.):
       0.993 -0.000 -0.000  0.000 -0.001
      -0.000  0.998  0.000 -0.000 -0.000
      -0.000  0.000  0.998  0.000 -0.000
       0.000 -0.000  0.000  0.993 -0.000
      -0.001 -0.000 -0.000 -0.000  0.998

     Number of occupied Hubbard levels =   12.6125

     negative rho (up, down):  3.006E-04 3.006E-04

     HUBBARD ENERGY =    0.2560  (Ry)

     total cpu time spent up to now is      142.4 secs

     total energy              =    -741.52736883 Ry
     estimated scf accuracy    <       0.00000001 Ry

     total magnetization       =    -0.00 Bohr mag/cell
     absolute magnetization    =     7.50 Bohr mag/cell

     iteration # 33     ecut=    70.00 Ry     beta= 0.20
     Davidson diagonalization with overlap

---- Real-time Memory Report at c_bands before calling an iterative solver
           207 MiB given to the printing process from OS
           129 MiB allocation reported by mallinfo(arena+hblkhd)
         13246 MiB available memory on the node where the printing process lives
------------------
     ethr =  2.84E-11,  avg # of iterations =  1.4

     =================== HUBBARD OCCUPATIONS ===================
     ------------------------ ATOM    1 ------------------------
     Tr[ns(  1)] (up, down, total) =   4.98057  1.32576  6.30633
     Atomic magnetic moment for atom   1 =   3.65481
     SPIN  1
     eigenvalues:
       0.993  0.993  0.998  0.998  0.999
     eigenvectors (columns):
       0.136  0.980 -0.146 -0.005  0.000
      -0.094  0.073  0.429 -0.684 -0.577
       0.111  0.045  0.378  0.714 -0.577
      -0.980  0.136 -0.005  0.146 -0.000
       0.016  0.118  0.807  0.029  0.577
     occupation matrix ns (before diag.):
       0.993 -0.000 -0.000  0.000 -0.001
      -0.000  0.998  0.000 -0.000 -0.000
      -0.000  0.000  0.998  0.000 -0.000
       0.000 -0.000  0.000  0.993 -0.000
      -0.001 -0.000 -0.000 -0.000  0.998
     SPIN  2
     eigenvalues:
       0.046  0.110  0.110  0.530  0.530
     eigenvectors (columns):
       0.000 -0.097  0.959  0.262 -0.045
       0.577 -0.198  0.089 -0.272  0.739
       0.577  0.176  0.127 -0.504 -0.605
      -0.000 -0.959 -0.097 -0.045 -0.262
      -0.577 -0.022  0.216 -0.776  0.134
     occupation matrix ns (before diag.):
       0.139 -0.044 -0.044  0.000 -0.088
      -0.044  0.349 -0.151 -0.076  0.151
      -0.044 -0.151  0.349  0.076  0.151
       0.000 -0.076  0.076  0.139 -0.000
      -0.088  0.151  0.151 -0.000  0.349
     ------------------------ ATOM    2 ------------------------
     Tr[ns(  2)] (up, down, total) =   1.32563  4.98057  6.30619
     Atomic magnetic moment for atom   2 =  -3.65494
     SPIN  1
     eigenvalues:
       0.046  0.110  0.110  0.530  0.530
     eigenvectors (columns):
       0.000  0.830 -0.491  0.264  0.031
       0.577 -0.002 -0.217 -0.310 -0.723
       0.577  0.189  0.106 -0.471  0.630
      -0.000 -0.491 -0.830 -0.031  0.264
      -0.577  0.187 -0.110 -0.782 -0.093
     occupation matrix ns (before diag.):
       0.139 -0.044 -0.044  0.000 -0.088
      -0.044  0.349 -0.151 -0.076  0.151
      -0.044 -0.151  0.349  0.076  0.151
       0.000 -0.076  0.076  0.139 -0.000
      -0.088  0.151  0.151 -0.000  0.349
     SPIN  2
     eigenvalues:
       0.993  0.993  0.998  0.998  0.999
     eigenvectors (columns):
       0.268  0.952 -0.146  0.005  0.000
      -0.083  0.086  0.426  0.686 -0.577
       0.116  0.029  0.381 -0.712 -0.577
      -0.952  0.268 -0.005 -0.146 -0.000
       0.032  0.115  0.807 -0.026  0.577
     occupation matrix ns (before diag.):
       0.993 -0.000 -0.000  0.000 -0.001
      -0.000  0.998  0.000 -0.000 -0.000
      -0.000  0.000  0.998  0.000 -0.000
       0.000 -0.000  0.000  0.993 -0.000
      -0.001 -0.000 -0.000 -0.000  0.998

     Number of occupied Hubbard levels =   12.6125

     negative rho (up, down):  3.007E-04 3.006E-04

     HUBBARD ENERGY =    0.2560  (Ry)

     Magnetic moment per site  (integrated on atomic sphere of radius R)
     atom   1 (R=0.206)  charge= 13.5475  magn=  3.4557
     atom   2 (R=0.206)  charge= 13.5474  magn= -3.4558
     atom   3 (R=0.206)  charge=  5.8731  magn= -0.0000
     atom   4 (R=0.206)  charge=  5.8731  magn= -0.0000

     total cpu time spent up to now is      146.3 secs

     End of self-consistent calculation

 ------ SPIN UP ------------


          k = 0.0000 0.0000 0.0000 (  2713 PWs)   bands (ev):

   -75.7227 -71.5437 -41.9318 -41.6802 -41.6802 -37.7262 -37.6506 -37.6506
    -6.0282  -4.8504   5.4869   6.9775   6.9775   8.6542   8.6542   8.9761
    10.8641  10.8641  10.8652  11.4595  11.4595  13.7473  13.7473  14.6268
    16.5319  17.5511

     occupation numbers 
     1.0000   1.0000   1.0000   1.0000   1.0000   1.0000   1.0000   1.0000
     1.0000   1.0000   1.0000   1.0000   1.0000   1.0000   1.0000   1.0000
     1.0000   1.0000   1.0000   1.0000   1.0000   1.0482   1.0482   0.0000
     0.0000   0.0000

          k = 0.2500-0.0833-0.0833 (  2719 PWs)   bands (ev):

   -75.7218 -71.5428 -41.9306 -41.6896 -41.6826 -37.7247 -37.6622 -37.6535
    -5.7887  -4.8460   5.8798   6.9420   7.0981   8.1404   8.5138   8.9265
     9.8068  10.2345  10.6715  11.5489  11.6633  13.6909  13.9786  16.0322
    16.6295  17.4212

     occupation numbers 
     1.0000   1.0000   1.0000   1.0000   1.0000   1.0000   1.0000   1.0000
     1.0000   1.0000   1.0000   1.0000   1.0000   1.0000   1.0000   1.0000
     1.0000   1.0000   1.0000   1.0000   1.0000   1.0174   0.5625   0.0000
     0.0000   0.0000

          k = 0.5000-0.1667-0.1667 (  2713 PWs)   bands (ev):

   -75.7205 -71.5406 -41.9279 -41.7083 -41.6871 -37.7214 -37.6857 -37.6591
    -5.2759  -4.8146   6.3713   6.7541   7.1918   7.3192   8.5830   8.6115
     8.8411  10.0652  10.0793  11.4218  11.7759  13.6147  14.4020  16.7709
    17.0495  17.5008

     occupation numbers 
     1.0000   1.0000   1.0000   1.0000   1.0000   1.0000   1.0000   1.0000
     1.0000   1.0000   1.0000   1.0000   1.0000   1.0000   1.0000   1.0000
     1.0000   1.0000   1.0000   1.0000   1.0000   1.0023   0.0000   0.0000
     0.0000   0.0000

          k =-0.7500 0.2500 0.2500 (  2696 PWs)   bands (ev):

   -75.7203 -71.5390 -41.9262 -41.7172 -41.6894 -37.7194 -37.6973 -37.6619
    -4.9968  -4.7926   6.1778   6.7091   7.1133   7.1496   8.3314   8.8202
     9.0948   9.4437   9.9759  11.4339  11.8971  13.5672  14.5846  16.9192
    17.4351  17.5047

     occupation numbers 
     1.0000   1.0000   1.0000   1.0000   1.0000   1.0000   1.0000   1.0000
     1.0000   1.0000   1.0000   1.0000   1.0000   1.0000   1.0000   1.0000
     1.0000   1.0000   1.0000   1.0000   1.0000   1.0005   0.0000   0.0000
     0.0000   0.0000

          k = 0.1667 0.1667-0.1667 (  2710 PWs)   bands (ev):

   -75.7218 -71.5427 -41.9304 -41.6895 -41.6826 -37.7245 -37.6621 -37.6535
    -5.7644  -4.8764   5.9574   6.9162   7.1267   8.1221   8.5030   8.9580
     9.6793  10.1748  10.4291  11.8054  11.8195  13.6513  13.9964  16.1651
    16.6194  17.3440

     occupation numbers 
     1.0000   1.0000   1.0000   1.0000   1.0000   1.0000   1.0000   1.0000
     1.0000   1.0000   1.0000   1.0000   1.0000   1.0000   1.0000   1.0000
     1.0000   1.0000   1.0000   1.0000   1.0000   1.0066   0.4657   0.0000
     0.0000   0.0000

          k = 0.4167 0.0833-0.2500 (  2709 PWs)   bands (ev):

   -75.7206 -71.5413 -41.9284 -41.7018 -41.6880 -37.7219 -37.6775 -37.6600
    -5.3748  -4.8632   6.3836   6.9905   7.0422   7.6696   7.8177   8.9772
     9.2982   9.7300  10.5418  11.2135  11.7750  13.9079  14.1469  16.6507
    16.9947  17.4783

     occupation numbers 
     1.0000   1.0000   1.0000   1.0000   1.0000   1.0000   1.0000   1.0000
     1.0000   1.0000   1.0000   1.0000   1.0000   1.0000   1.0000   1.0000
     1.0000   1.0000   1.0000   1.0000   1.0000   0.9186   0.0281   0.0000
     0.0000   0.0000

          k =-0.8333 0.5000 0.1667 (  2706 PWs)   bands (ev):

   -75.7198 -71.5395 -41.9263 -41.7128 -41.6945 -37.7193 -37.6913 -37.6679
    -4.9954  -4.7969   6.4327   6.5647   7.0071   7.6685   7.8583   8.3159
     9.3227   9.5029  10.3785  11.2620  11.5604  13.9466  14.4200  16.8621
    17.3007  17.5239

     occupation numbers 
     1.0000   1.0000   1.0000   1.0000   1.0000   1.0000   1.0000   1.0000
     1.0000   1.0000   1.0000   1.0000   1.0000   1.0000   1.0000   1.0000
     1.0000   1.0000   1.0000   1.0000   1.0000   0.7379   0.0000   0.0000
     0.0000   0.0000

          k =-0.5833 0.4167 0.0833 (  2707 PWs)   bands (ev):

   -75.7198 -71.5395 -41.9264 -41.7128 -41.6945 -37.7194 -37.6913 -37.6679
    -4.9883  -4.8063   6.2986   6.8382   7.0321   7.5886   7.8634   8.2565
     9.2386   9.5369  10.3621  11.1640  11.6720  13.9409  14.4279  16.8744
    17.2194  17.6818

     occupation numbers 
     1.0000   1.0000   1.0000   1.0000   1.0000   1.0000   1.0000   1.0000
     1.0000   1.0000   1.0000   1.0000   1.0000   1.0000   1.0000   1.0000
     1.0000   1.0000   1.0000   1.0000   1.0000   0.7671   0.0000   0.0000
     0.0000   0.0000

          k =-0.3333 0.3333-0.0000 (  2712 PWs)   bands (ev):

   -75.7206 -71.5413 -41.9285 -41.7018 -41.6880 -37.7221 -37.6775 -37.6599
    -5.4125  -4.8232   6.4363   6.9289   7.0358   7.7423   7.8306   9.0533
     9.0637   9.6945  10.6787  11.1374  11.8374  13.9138  14.1305  16.6649
    17.0852  17.5470

     occupation numbers 
     1.0000   1.0000   1.0000   1.0000   1.0000   1.0000   1.0000   1.0000
     1.0000   1.0000   1.0000   1.0000   1.0000   1.0000   1.0000   1.0000
     1.0000   1.0000   1.0000   1.0000   1.0000   0.8949   0.0427   0.0000
     0.0000   0.0000

          k = 0.3333 0.3333-0.3333 (  2699 PWs)   bands (ev):

   -75.7204 -71.5408 -41.9277 -41.7081 -41.6871 -37.7209 -37.6852 -37.6590
    -5.1794  -4.9158   6.3255   6.9478   6.9999   7.2086   8.5013   8.5966
     9.3420   9.6514  10.0615  11.7412  11.8958  13.6041  14.4551  16.7562
    17.5125  17.5462

     occupation numbers 
     1.0000   1.0000   1.0000   1.0000   1.0000   1.0000   1.0000   1.0000
     1.0000   1.0000   1.0000   1.0000   1.0000   1.0000   1.0000   1.0000
     1.0000   1.0000   1.0000   1.0000   1.0000   1.0017   0.0000   0.0000
     0.0000   0.0000

          k =-0.9167 0.7500 0.0833 (  2704 PWs)   bands (ev):

   -75.7197 -71.5399 -41.9264 -41.7130 -41.6943 -37.7191 -37.6912 -37.6677
    -4.9177  -4.8722   6.0222   6.9888   7.1745   7.3326   7.6263   8.7913
     9.3402   9.6645   9.9463  11.4899  11.7362  13.8999  14.4937  16.8575
    17.3251  17.6820

     occupation numbers 
     1.0000   1.0000   1.0000   1.0000   1.0000   1.0000   1.0000   1.0000
     1.0000   1.0000   1.0000   1.0000   1.0000   1.0000   1.0000   1.0000
     1.0000   1.0000   1.0000   1.0000   1.0000   0.9486   0.0000   0.0000
     0.0000   0.0000

          k =-0.6667 0.6667 0.0000 (  2718 PWs)   bands (ev):

   -75.7192 -71.5394 -41.9258 -41.7069 -41.7068 -37.7184 -37.6833 -37.6832
    -4.8198  -4.8197   6.5474   6.7399   6.9275   7.3847   7.5704   8.3069
     8.9412   9.9157  10.1198  11.2971  11.6270  14.2206  14.3264  16.8479
    17.4443  17.5548

     occupation numbers 
     1.0000   1.0000   1.0000   1.0000   1.0000   1.0000   1.0000   1.0000
     1.0000   1.0000   1.0000   1.0000   1.0000   1.0000   1.0000   1.0000
     1.0000   1.0000   1.0000   1.0000   1.0000   0.0031   0.0000   0.0000
     0.0000   0.0000

          k =-0.5000-0.5000 0.5000 (  2712 PWs)   bands (ev):

   -75.7201 -71.5400 -41.9265 -41.7177 -41.6895 -37.7190 -37.6972 -37.6620
    -4.9311  -4.8488   5.5635   7.0851   7.1081   7.2610   8.0975   9.0872
     9.4901   9.6921   9.6939  11.5477  11.8153  13.6910  14.6595  16.9314
    17.7078  17.7725

     occupation numbers 
     1.0000   1.0000   1.0000   1.0000   1.0000   1.0000   1.0000   1.0000
     1.0000   1.0000   1.0000   1.0000   1.0000   1.0000   1.0000   1.0000
     1.0000   1.0000   1.0000   1.0000   1.0000   1.0174   0.0000   0.0000
     0.0000   0.0000

          k = 0.0833 0.0833 0.0833 (  2731 PWs)   bands (ev):

   -75.7228 -71.5437 -41.9319 -41.6804 -41.6804 -37.7264 -37.6508 -37.6508
    -5.9593  -4.9418   5.6773   7.0022   7.0022   8.6604   8.6604   8.8927
    10.4628  10.5750  10.5750  11.7512  11.7512  13.7317  13.7317  15.1352
    16.4531  17.5069

     occupation numbers 
     1.0000   1.0000   1.0000   1.0000   1.0000   1.0000   1.0000   1.0000
     1.0000   1.0000   1.0000   1.0000   1.0000   1.0000   1.0000   1.0000
     1.0000   1.0000   1.0000   1.0000   1.0000   1.0380   1.0380   0.0000
     0.0000   0.0000

          k = 0.3333 0.0000 0.0000 (  2706 PWs)   bands (ev):

   -75.7218 -71.5427 -41.9303 -41.6896 -41.6825 -37.7245 -37.6621 -37.6534
    -5.6978  -4.9549   6.0358   6.9556   7.1099   8.0876   8.5189   8.8587
     9.5624  10.7038  10.7072  11.1817  11.4582  13.7509  13.9754  16.1756
    16.5798  17.5815

     occupation numbers 
     1.0000   1.0000   1.0000   1.0000   1.0000   1.0000   1.0000   1.0000
     1.0000   1.0000   1.0000   1.0000   1.0000   1.0000   1.0000   1.0000
     1.0000   1.0000   1.0000   1.0000   1.0000   1.0506   0.5804   0.0000
     0.0000   0.0000

          k =-0.9167 0.4167 0.4167 (  2695 PWs)   bands (ev):

   -75.7205 -71.5406 -41.9276 -41.7081 -41.6871 -37.7210 -37.6854 -37.6591
    -5.2373  -4.8510   6.1684   6.7348   7.1784   7.4055   8.6419   8.7028
     8.9238  10.1471  10.4912  10.9173  11.6109  13.6982  14.4054  16.7662
    16.8471  17.6046

     occupation numbers 
     1.0000   1.0000   1.0000   1.0000   1.0000   1.0000   1.0000   1.0000
     1.0000   1.0000   1.0000   1.0000   1.0000   1.0000   1.0000   1.0000
     1.0000   1.0000   1.0000   1.0000   1.0000   1.0203   0.0000   0.0000
     0.0000   0.0000

          k =-0.6667 0.3333 0.3333 (  2699 PWs)   bands (ev):

   -75.7202 -71.5393 -41.9262 -41.7174 -41.6894 -37.7193 -37.6973 -37.6619
    -4.9845  -4.8026   5.9782   6.7110   7.1389   7.3280   8.2655   8.8911
     9.0922   9.5017   9.9709  11.5206  11.8131  13.5960  14.6050  16.9216
    17.4767  17.5549

     occupation numbers 
     1.0000   1.0000   1.0000   1.0000   1.0000   1.0000   1.0000   1.0000
     1.0000   1.0000   1.0000   1.0000   1.0000   1.0000   1.0000   1.0000
     1.0000   1.0000   1.0000   1.0000   1.0000   1.0013   0.0000   0.0000
     0.0000   0.0000

          k =-0.4167 0.2500 0.2500 (  2706 PWs)   bands (ev):

   -75.7204 -71.5406 -41.9279 -41.7082 -41.6871 -37.7212 -37.6855 -37.6590
    -5.2550  -4.8390   6.5424   6.7176   7.1593   7.2072   8.4901   8.5883
     9.0028   9.8127  10.0283  11.8037  11.8360  13.5661  14.4278  16.7747
    17.3921  17.4539

     occupation numbers 
     1.0000   1.0000   1.0000   1.0000   1.0000   1.0000   1.0000   1.0000
     1.0000   1.0000   1.0000   1.0000   1.0000   1.0000   1.0000   1.0000
     1.0000   1.0000   1.0000   1.0000   1.0000   1.0004   0.0000   0.0000
     0.0000   0.0000

          k = 0.2500 0.2500-0.0833 (  2719 PWs)   bands (ev):

   -75.7219 -71.5428 -41.9305 -41.6896 -41.6828 -37.7247 -37.6621 -37.6537
    -5.6299  -5.0351   6.2337   6.8714   7.1694   8.0534   8.4954   8.9918
     9.2124  10.2581  10.5028  11.5514  11.9569  13.6653  14.0132  16.4644
    16.6680  17.3888

     occupation numbers 
     1.0000   1.0000   1.0000   1.0000   1.0000   1.0000   1.0000   1.0000
     1.0000   1.0000   1.0000   1.0000   1.0000   1.0000   1.0000   1.0000
     1.0000   1.0000   1.0000   1.0000   1.0000   1.0095   0.3796   0.0000
     0.0000   0.0000

          k =-1.0000 0.6667 0.3333 (  2701 PWs)   bands (ev):

   -75.7207 -71.5414 -41.9283 -41.7018 -41.6879 -37.7217 -37.6773 -37.6599
    -5.2721  -4.9704   6.3022   6.9999   7.1308   7.5778   7.7773   9.0196
     9.5498   9.8175  10.3885  11.1437  11.7229  13.9084  14.1741  16.6527
    16.8699  17.4301

     occupation numbers 
     1.0000   1.0000   1.0000   1.0000   1.0000   1.0000   1.0000   1.0000
     1.0000   1.0000   1.0000   1.0000   1.0000   1.0000   1.0000   1.0000
     1.0000   1.0000   1.0000   1.0000   1.0000   0.9168   0.0133   0.0000
     0.0000   0.0000

          k =-0.7500 0.5833 0.2500 (  2705 PWs)   bands (ev):

   -75.7198 -71.5398 -41.9263 -41.7129 -41.6945 -37.7191 -37.6912 -37.6679
    -4.9768  -4.8119   6.2528   6.5782   7.0423   7.6379   7.7360   8.6366
     9.3465   9.5538  10.2343  11.4158  11.5763  13.9282  14.4517  16.8463
    17.3811  17.4748

     occupation numbers 
     1.0000   1.0000   1.0000   1.0000   1.0000   1.0000   1.0000   1.0000
     1.0000   1.0000   1.0000   1.0000   1.0000   1.0000   1.0000   1.0000
     1.0000   1.0000   1.0000   1.0000   1.0000   0.8303   0.0000   0.0000
     0.0000   0.0000

          k =-0.5000 0.5000 0.1667 (  2703 PWs)   bands (ev):

   -75.7197 -71.5397 -41.9263 -41.7128 -41.6944 -37.7192 -37.6912 -37.6678
    -4.9570  -4.8365   6.1361   6.9850   7.1438   7.3978   7.7145   8.5463
     9.2562   9.5844  10.1436  11.3308  11.7282  13.9135  14.4678  16.8727
    17.2369  17.7746

     occupation numbers 
     1.0000   1.0000   1.0000   1.0000   1.0000   1.0000   1.0000   1.0000
     1.0000   1.0000   1.0000   1.0000   1.0000   1.0000   1.0000   1.0000
     1.0000   1.0000   1.0000   1.0000   1.0000   0.8959   0.0000   0.0000
     0.0000   0.0000

          k =-0.5833-0.5833 0.7500 (  2707 PWs)   bands (ev):

   -75.7205 -71.5410 -41.9277 -41.7083 -41.6872 -37.7209 -37.6853 -37.6592
    -5.0841  -5.0089   6.1315   6.7932   7.1947   7.2391   8.5641   8.6271
     9.4865   9.7886  10.1446  11.5768  11.6264  13.6895  14.4557  16.7368
    17.1755  17.6174

     occupation numbers 
     1.0000   1.0000   1.0000   1.0000   1.0000   1.0000   1.0000   1.0000
     1.0000   1.0000   1.0000   1.0000   1.0000   1.0000   1.0000   1.0000
     1.0000   1.0000   1.0000   1.0000   1.0000   1.0168   0.0000   0.0000
     0.0000   0.0000

          k =-0.3333-0.6667 0.6667 (  2699 PWs)   bands (ev):

   -75.7197 -71.5400 -41.9263 -41.7129 -41.6943 -37.7190 -37.6911 -37.6678
    -4.9398  -4.8477   6.0519   6.7865   7.0898   7.5265   7.6353   8.8466
     9.3405   9.6367  10.0372  11.4607  11.7225  13.9090  14.4858  16.8430
    17.3814  17.5533

     occupation numbers 
     1.0000   1.0000   1.0000   1.0000   1.0000   1.0000   1.0000   1.0000
     1.0000   1.0000   1.0000   1.0000   1.0000   1.0000   1.0000   1.0000
     1.0000   1.0000   1.0000   1.0000   1.0000   0.9143   0.0000   0.0000
     0.0000   0.0000

          k =-0.0833-0.7500 0.5833 (  2700 PWs)   bands (ev):

   -75.7192 -71.5393 -41.9257 -41.7068 -41.7065 -37.7183 -37.6830 -37.6830
    -4.8198  -4.8197   6.5475   6.7398   6.9280   7.3843   7.5706   8.3068
     8.9414   9.9332  10.0983  11.3089  11.6198  14.2208  14.3266  16.8482
    17.4435  17.5552

     occupation numbers 
     1.0000   1.0000   1.0000   1.0000   1.0000   1.0000   1.0000   1.0000
     1.0000   1.0000   1.0000   1.0000   1.0000   1.0000   1.0000   1.0000
     1.0000   1.0000   1.0000   1.0000   1.0000   0.0031   0.0000   0.0000
     0.0000   0.0000

          k =-0.4167-0.4167 0.5833 (  2704 PWs)   bands (ev):

   -75.7201 -71.5398 -41.9262 -41.7175 -41.6895 -37.7190 -37.6972 -37.6620
    -4.9537  -4.8286   5.6816   6.8817   7.1182   7.4085   8.1413   9.0885
     9.1851   9.6250   9.8773  11.6393  11.7119  13.6573  14.6425  16.9276
    17.6127  17.6565

     occupation numbers 
     1.0000   1.0000   1.0000   1.0000   1.0000   1.0000   1.0000   1.0000
     1.0000   1.0000   1.0000   1.0000   1.0000   1.0000   1.0000   1.0000
     1.0000   1.0000   1.0000   1.0000   1.0000   1.0078   0.0000   0.0000
     0.0000   0.0000

          k = 0.1667 0.1667 0.1667 (  2710 PWs)   bands (ev):

   -75.7229 -71.5434 -41.9313 -41.6803 -41.6803 -37.7261 -37.6507 -37.6507
    -5.7650  -5.1801   6.1591   7.0544   7.0544   8.5720   8.6742   8.6742
     9.8569  10.2276  10.2276  12.1031  12.1031  13.7013  13.7013  16.0741
    16.4236  17.4179

     occupation numbers 
     1.0000   1.0000   1.0000   1.0000   1.0000   1.0000   1.0000   1.0000
     1.0000   1.0000   1.0000   1.0000   1.0000   1.0000   1.0000   1.0000
     1.0000   1.0000   1.0000   1.0000   1.0000   1.0216   1.0216   0.0000
     0.0000   0.0000

          k =-1.0833 0.5833 0.5833 (  2698 PWs)   bands (ev):

   -75.7219 -71.5426 -41.9301 -41.6896 -41.6825 -37.7244 -37.6621 -37.6534
    -5.5110  -5.1658   6.3425   6.8818   7.1516   8.0178   8.5121   8.8144
     9.3690  10.4534  10.7201  11.0819  11.6751  13.7665  13.9914  16.4082
    16.5053  17.5459

     occupation numbers 
     1.0000   1.0000   1.0000   1.0000   1.0000   1.0000   1.0000   1.0000
     1.0000   1.0000   1.0000   1.0000   1.0000   1.0000   1.0000   1.0000
     1.0000   1.0000   1.0000   1.0000   1.0000   1.0613   0.4929   0.0000
     0.0000   0.0000

          k =-0.8333 0.5000 0.5000 (  2702 PWs)   bands (ev):

   -75.7205 -71.5409 -41.9276 -41.7082 -41.6872 -37.7209 -37.6854 -37.6591
    -5.1516  -4.9379   6.0764   6.7148   7.1799   7.3850   8.6460   8.6492
     9.2380  10.1955  10.2930  11.1153  11.5042  13.7353  14.4317  16.7502
    16.8910  17.6624

     occupation numbers 
     1.0000   1.0000   1.0000   1.0000   1.0000   1.0000   1.0000   1.0000
     1.0000   1.0000   1.0000   1.0000   1.0000   1.0000   1.0000   1.0000
     1.0000   1.0000   1.0000   1.0000   1.0000   1.0402   0.0000   0.0000
     0.0000   0.0000

          k =-0.6667-0.6667 1.0000 (  2707 PWs)   bands (ev):

   -75.7220 -71.5427 -41.9302 -41.6896 -41.6826 -37.7245 -37.6621 -37.6535
    -5.4137  -5.2692   6.5269   6.7594   7.1826   8.0051   8.4993   8.8956
     9.1467  10.2635  10.6384  11.2654  11.8899  13.7211  14.0115  16.4677
    16.6568  17.4498

     occupation numbers 
     1.0000   1.0000   1.0000   1.0000   1.0000   1.0000   1.0000   1.0000
     1.0000   1.0000   1.0000   1.0000   1.0000   1.0000   1.0000   1.0000
     1.0000   1.0000   1.0000   1.0000   1.0000   1.0316   0.3884   0.0000
     0.0000   0.0000

          k =-0.4167-0.7500 0.9167 (  2706 PWs)   bands (ev):

   -75.7207 -71.5415 -41.9284 -41.7019 -41.6878 -37.7218 -37.6774 -37.6598
    -5.1600  -5.0848   6.2683   6.9833   7.1807   7.5548   7.7524   9.0540
     9.6439   9.8715  10.3822  10.9936  11.7353  13.9138  14.1850  16.6834
    16.8221  17.3991

     occupation numbers 
     1.0000   1.0000   1.0000   1.0000   1.0000   1.0000   1.0000   1.0000
     1.0000   1.0000   1.0000   1.0000   1.0000   1.0000   1.0000   1.0000
     1.0000   1.0000   1.0000   1.0000   1.0000   0.8949   0.0096   0.0000
     0.0000   0.0000

          k =-0.2500-0.2500-0.2500 (  2702 PWs)   bands (ev):

   -75.7229 -71.5433 -41.9313 -41.6801 -41.6801 -37.7263 -37.6506 -37.6506
    -5.4975  -5.4692   6.5086   7.0820   7.0820   8.2481   8.6815   8.6815
     9.6509  10.0907  10.0907  12.2415  12.2415  13.6861  13.6861  16.1671
    17.3680  17.3730

     occupation numbers 
     1.0000   1.0000   1.0000   1.0000   1.0000   1.0000   1.0000   1.0000
     1.0000   1.0000   1.0000   1.0000   1.0000   1.0000   1.0000   1.0000
     1.0000   1.0000   1.0000   1.0000   1.0000   1.0156   1.0156   0.0000
     0.0000   0.0000

 ------ SPIN DOWN ----------


          k = 0.0000 0.0000 0.0000 (  2713 PWs)   bands (ev):

   -75.7226 -71.5437 -41.9317 -41.6801 -41.6801 -37.7262 -37.6506 -37.6506
    -6.0282  -4.8504   5.4869   6.9776   6.9776   8.6543   8.6543   8.9762
    10.8641  10.8641  10.8653  11.4595  11.4595  13.7473  13.7473  14.6268
    16.5318  17.5510

     occupation numbers 
     1.0000   1.0000   1.0000   1.0000   1.0000   1.0000   1.0000   1.0000
     1.0000   1.0000   1.0000   1.0000   1.0000   1.0000   1.0000   1.0000
     1.0000   1.0000   1.0000   1.0000   1.0000   1.0482   1.0482   0.0000
     0.0000   0.0000

          k = 0.2500-0.0833-0.0833 (  2719 PWs)   bands (ev):

   -75.7217 -71.5429 -41.9305 -41.6895 -41.6825 -37.7248 -37.6623 -37.6536
    -5.7886  -4.8460   5.8799   6.9421   7.0981   8.1405   8.5139   8.9266
     9.8068  10.2346  10.6715  11.5489  11.6633  13.6909  13.9786  16.0322
    16.6294  17.4211

     occupation numbers 
     1.0000   1.0000   1.0000   1.0000   1.0000   1.0000   1.0000   1.0000
     1.0000   1.0000   1.0000   1.0000   1.0000   1.0000   1.0000   1.0000
     1.0000   1.0000   1.0000   1.0000   1.0000   1.0174   0.5628   0.0000
     0.0000   0.0000

          k = 0.5000-0.1667-0.1667 (  2713 PWs)   bands (ev):

   -75.7204 -71.5406 -41.9278 -41.7082 -41.6870 -37.7214 -37.6858 -37.6592
    -5.2759  -4.8146   6.3714   6.7542   7.1919   7.3192   8.5830   8.6116
     8.8412  10.0652  10.0793  11.4218  11.7759  13.6147  14.4020  16.7708
    17.0495  17.5008

     occupation numbers 
     1.0000   1.0000   1.0000   1.0000   1.0000   1.0000   1.0000   1.0000
     1.0000   1.0000   1.0000   1.0000   1.0000   1.0000   1.0000   1.0000
     1.0000   1.0000   1.0000   1.0000   1.0000   1.0023   0.0000   0.0000
     0.0000   0.0000

          k =-0.7500 0.2500 0.2500 (  2696 PWs)   bands (ev):

   -75.7202 -71.5391 -41.9261 -41.7171 -41.6893 -37.7195 -37.6974 -37.6620
    -4.9968  -4.7926   6.1778   6.7092   7.1133   7.1497   8.3315   8.8203
     9.0949   9.4437   9.9760  11.4339  11.8971  13.5672  14.5846  16.9191
    17.4350  17.5046

     occupation numbers 
     1.0000   1.0000   1.0000   1.0000   1.0000   1.0000   1.0000   1.0000
     1.0000   1.0000   1.0000   1.0000   1.0000   1.0000   1.0000   1.0000
     1.0000   1.0000   1.0000   1.0000   1.0000   1.0005   0.0000   0.0000
     0.0000   0.0000

          k = 0.1667 0.1667-0.1667 (  2710 PWs)   bands (ev):

   -75.7217 -71.5428 -41.9304 -41.6894 -41.6825 -37.7246 -37.6621 -37.6535
    -5.7644  -4.8764   5.9574   6.9163   7.1268   8.1222   8.5031   8.9581
     9.6793  10.1748  10.4291  11.8054  11.8195  13.6512  13.9964  16.1651
    16.6193  17.3439

     occupation numbers 
     1.0000   1.0000   1.0000   1.0000   1.0000   1.0000   1.0000   1.0000
     1.0000   1.0000   1.0000   1.0000   1.0000   1.0000   1.0000   1.0000
     1.0000   1.0000   1.0000   1.0000   1.0000   1.0066   0.4659   0.0000
     0.0000   0.0000

          k = 0.4167 0.0833-0.2500 (  2709 PWs)   bands (ev):

   -75.7205 -71.5414 -41.9283 -41.7017 -41.6879 -37.7220 -37.6775 -37.6600
    -5.3748  -4.8631   6.3836   6.9906   7.0423   7.6697   7.8178   8.9773
     9.2982   9.7301  10.5418  11.2135  11.7750  13.9079  14.1469  16.6506
    16.9946  17.4782

     occupation numbers 
     1.0000   1.0000   1.0000   1.0000   1.0000   1.0000   1.0000   1.0000
     1.0000   1.0000   1.0000   1.0000   1.0000   1.0000   1.0000   1.0000
     1.0000   1.0000   1.0000   1.0000   1.0000   0.9188   0.0281   0.0000
     0.0000   0.0000

          k =-0.8333 0.5000 0.1667 (  2706 PWs)   bands (ev):

   -75.7197 -71.5396 -41.9262 -41.7127 -41.6944 -37.7194 -37.6914 -37.6680
    -4.9954  -4.7969   6.4328   6.5647   7.0072   7.6686   7.8584   8.3159
     9.3227   9.5030  10.3785  11.2620  11.5604  13.9465  14.4200  16.8620
    17.3006  17.5238

     occupation numbers 
     1.0000   1.0000   1.0000   1.0000   1.0000   1.0000   1.0000   1.0000
     1.0000   1.0000   1.0000   1.0000   1.0000   1.0000   1.0000   1.0000
     1.0000   1.0000   1.0000   1.0000   1.0000   0.7381   0.0000   0.0000
     0.0000   0.0000

          k =-0.5833 0.4167 0.0833 (  2707 PWs)   bands (ev):

   -75.7197 -71.5395 -41.9263 -41.7127 -41.6944 -37.7195 -37.6914 -37.6679
    -4.9883  -4.8063   6.2987   6.8383   7.0322   7.5886   7.8635   8.2565
     9.2386   9.5370  10.3621  11.1640  11.6721  13.9409  14.4278  16.8743
    17.2193  17.6818

     occupation numbers 
     1.0000   1.0000   1.0000   1.0000   1.0000   1.0000   1.0000   1.0000
     1.0000   1.0000   1.0000   1.0000   1.0000   1.0000   1.0000   1.0000
     1.0000   1.0000   1.0000   1.0000   1.0000   0.7674   0.0000   0.0000
     0.0000   0.0000

          k =-0.3333 0.3333-0.0000 (  2712 PWs)   bands (ev):

   -75.7205 -71.5413 -41.9284 -41.7017 -41.6879 -37.7222 -37.6775 -37.6600
    -5.4124  -4.8232   6.4364   6.9289   7.0359   7.7423   7.8306   9.0533
     9.0638   9.6945  10.6787  11.1374  11.8374  13.9137  14.1304  16.6648
    17.0851  17.5469

     occupation numbers 
     1.0000   1.0000   1.0000   1.0000   1.0000   1.0000   1.0000   1.0000
     1.0000   1.0000   1.0000   1.0000   1.0000   1.0000   1.0000   1.0000
     1.0000   1.0000   1.0000   1.0000   1.0000   0.8951   0.0428   0.0000
     0.0000   0.0000

          k = 0.3333 0.3333-0.3333 (  2699 PWs)   bands (ev):

   -75.7203 -71.5409 -41.9277 -41.7080 -41.6871 -37.7210 -37.6853 -37.6591
    -5.1794  -4.9158   6.3255   6.9478   7.0000   7.2086   8.5014   8.5967
     9.3420   9.6514  10.0615  11.7413  11.8959  13.6040  14.4551  16.7561
    17.5124  17.5461

     occupation numbers 
     1.0000   1.0000   1.0000   1.0000   1.0000   1.0000   1.0000   1.0000
     1.0000   1.0000   1.0000   1.0000   1.0000   1.0000   1.0000   1.0000
     1.0000   1.0000   1.0000   1.0000   1.0000   1.0016   0.0000   0.0000
     0.0000   0.0000

          k =-0.9167 0.7500 0.0833 (  2704 PWs)   bands (ev):

   -75.7196 -71.5400 -41.9263 -41.7129 -41.6942 -37.7191 -37.6913 -37.6678
    -4.9177  -4.8722   6.0222   6.9889   7.1746   7.3327   7.6263   8.7913
     9.3402   9.6645   9.9463  11.4899  11.7363  13.8999  14.4937  16.8574
    17.3250  17.6819

     occupation numbers 
     1.0000   1.0000   1.0000   1.0000   1.0000   1.0000   1.0000   1.0000
     1.0000   1.0000   1.0000   1.0000   1.0000   1.0000   1.0000   1.0000
     1.0000   1.0000   1.0000   1.0000   1.0000   0.9487   0.0000   0.0000
     0.0000   0.0000

          k =-0.6667 0.6667 0.0000 (  2718 PWs)   bands (ev):

   -75.7191 -71.5394 -41.9257 -41.7068 -41.7067 -37.7185 -37.6834 -37.6833
    -4.8198  -4.8196   6.5474   6.7399   6.9275   7.3848   7.5705   8.3069
     8.9413   9.9158  10.1198  11.2971  11.6270  14.2206  14.3264  16.8478
    17.4442  17.5547

     occupation numbers 
     1.0000   1.0000   1.0000   1.0000   1.0000   1.0000   1.0000   1.0000
     1.0000   1.0000   1.0000   1.0000   1.0000   1.0000   1.0000   1.0000
     1.0000   1.0000   1.0000   1.0000   1.0000   0.0031   0.0000   0.0000
     0.0000   0.0000

          k =-0.5000-0.5000 0.5000 (  2712 PWs)   bands (ev):

   -75.7201 -71.5401 -41.9264 -41.7176 -41.6894 -37.7191 -37.6973 -37.6621
    -4.9311  -4.8488   5.5635   7.0852   7.1082   7.2610   8.0976   9.0874
     9.4902   9.6922   9.6939  11.5477  11.8153  13.6909  14.6595  16.9313
    17.7077  17.7724

     occupation numbers 
     1.0000   1.0000   1.0000   1.0000   1.0000   1.0000   1.0000   1.0000
     1.0000   1.0000   1.0000   1.0000   1.0000   1.0000   1.0000   1.0000
     1.0000   1.0000   1.0000   1.0000   1.0000   1.0174   0.0000   0.0000
     0.0000   0.0000

          k = 0.0833 0.0833 0.0833 (  2731 PWs)   bands (ev):

   -75.7227 -71.5437 -41.9318 -41.6803 -41.6803 -37.7264 -37.6509 -37.6509
    -5.9592  -4.9418   5.6773   7.0022   7.0022   8.6605   8.6605   8.8928
    10.4628  10.5750  10.5750  11.7512  11.7512  13.7317  13.7317  15.1352
    16.4530  17.5068

     occupation numbers 
     1.0000   1.0000   1.0000   1.0000   1.0000   1.0000   1.0000   1.0000
     1.0000   1.0000   1.0000   1.0000   1.0000   1.0000   1.0000   1.0000
     1.0000   1.0000   1.0000   1.0000   1.0000   1.0379   1.0379   0.0000
     0.0000   0.0000

          k = 0.3333 0.0000 0.0000 (  2706 PWs)   bands (ev):

   -75.7217 -71.5428 -41.9302 -41.6895 -41.6824 -37.7246 -37.6622 -37.6535
    -5.6978  -4.9549   6.0358   6.9557   7.1100   8.0877   8.5190   8.8588
     9.5624  10.7039  10.7072  11.1817  11.4582  13.7508  13.9753  16.1755
    16.5797  17.5814

     occupation numbers 
     1.0000   1.0000   1.0000   1.0000   1.0000   1.0000   1.0000   1.0000
     1.0000   1.0000   1.0000   1.0000   1.0000   1.0000   1.0000   1.0000
     1.0000   1.0000   1.0000   1.0000   1.0000   1.0506   0.5807   0.0000
     0.0000   0.0000

          k =-0.9167 0.4167 0.4167 (  2695 PWs)   bands (ev):

   -75.7204 -71.5407 -41.9275 -41.7080 -41.6870 -37.7210 -37.6855 -37.6591
    -5.2373  -4.8510   6.1684   6.7349   7.1785   7.4056   8.6420   8.7028
     8.9238  10.1471  10.4913  10.9174  11.6109  13.6981  14.4053  16.7661
    16.8471  17.6045

     occupation numbers 
     1.0000   1.0000   1.0000   1.0000   1.0000   1.0000   1.0000   1.0000
     1.0000   1.0000   1.0000   1.0000   1.0000   1.0000   1.0000   1.0000
     1.0000   1.0000   1.0000   1.0000   1.0000   1.0203   0.0000   0.0000
     0.0000   0.0000

          k =-0.6667 0.3333 0.3333 (  2699 PWs)   bands (ev):

   -75.7201 -71.5393 -41.9262 -41.7173 -41.6893 -37.7193 -37.6974 -37.6620
    -4.9845  -4.8026   5.9783   6.7110   7.1389   7.3281   8.2656   8.8911
     9.0923   9.5017   9.9710  11.5206  11.8131  13.5960  14.6050  16.9215
    17.4766  17.5548

     occupation numbers 
     1.0000   1.0000   1.0000   1.0000   1.0000   1.0000   1.0000   1.0000
     1.0000   1.0000   1.0000   1.0000   1.0000   1.0000   1.0000   1.0000
     1.0000   1.0000   1.0000   1.0000   1.0000   1.0013   0.0000   0.0000
     0.0000   0.0000

          k =-0.4167 0.2500 0.2500 (  2706 PWs)   bands (ev):

   -75.7203 -71.5407 -41.9278 -41.7081 -41.6870 -37.7213 -37.6856 -37.6590
    -5.2550  -4.8390   6.5424   6.7176   7.1594   7.2073   8.4901   8.5884
     9.0028   9.8128  10.0283  11.8037  11.8360  13.5660  14.4277  16.7746
    17.3920  17.4538

     occupation numbers 
     1.0000   1.0000   1.0000   1.0000   1.0000   1.0000   1.0000   1.0000
     1.0000   1.0000   1.0000   1.0000   1.0000   1.0000   1.0000   1.0000
     1.0000   1.0000   1.0000   1.0000   1.0000   1.0004   0.0000   0.0000
     0.0000   0.0000

          k = 0.2500 0.2500-0.0833 (  2719 PWs)   bands (ev):

   -75.7218 -71.5428 -41.9304 -41.6895 -41.6827 -37.7248 -37.6622 -37.6537
    -5.6298  -5.0351   6.2337   6.8715   7.1695   8.0534   8.4955   8.9919
     9.2124  10.2581  10.5029  11.5514  11.9569  13.6652  14.0132  16.4644
    16.6680  17.3888

     occupation numbers 
     1.0000   1.0000   1.0000   1.0000   1.0000   1.0000   1.0000   1.0000
     1.0000   1.0000   1.0000   1.0000   1.0000   1.0000   1.0000   1.0000
     1.0000   1.0000   1.0000   1.0000   1.0000   1.0095   0.3798   0.0000
     0.0000   0.0000

          k =-1.0000 0.6667 0.3333 (  2701 PWs)   bands (ev):

   -75.7206 -71.5414 -41.9282 -41.7017 -41.6878 -37.7218 -37.6774 -37.6599
    -5.2721  -4.9704   6.3022   7.0000   7.1309   7.5778   7.7773   9.0197
     9.5498   9.8176  10.3886  11.1437  11.7229  13.9084  14.1741  16.6526
    16.8698  17.4300

     occupation numbers 
     1.0000   1.0000   1.0000   1.0000   1.0000   1.0000   1.0000   1.0000
     1.0000   1.0000   1.0000   1.0000   1.0000   1.0000   1.0000   1.0000
     1.0000   1.0000   1.0000   1.0000   1.0000   0.9169   0.0133   0.0000
     0.0000   0.0000

          k =-0.7500 0.5833 0.2500 (  2705 PWs)   bands (ev):

   -75.7197 -71.5398 -41.9262 -41.7128 -41.6944 -37.7192 -37.6913 -37.6680
    -4.9768  -4.8119   6.2528   6.5783   7.0423   7.6379   7.7361   8.6366
     9.3466   9.5538  10.2343  11.4158  11.5763  13.9281  14.4517  16.8462
    17.3810  17.4747

     occupation numbers 
     1.0000   1.0000   1.0000   1.0000   1.0000   1.0000   1.0000   1.0000
     1.0000   1.0000   1.0000   1.0000   1.0000   1.0000   1.0000   1.0000
     1.0000   1.0000   1.0000   1.0000   1.0000   0.8306   0.0000   0.0000
     0.0000   0.0000

          k =-0.5000 0.5000 0.1667 (  2703 PWs)   bands (ev):

   -75.7197 -71.5397 -41.9263 -41.7127 -41.6943 -37.7193 -37.6913 -37.6678
    -4.9569  -4.8365   6.1361   6.9851   7.1438   7.3978   7.7146   8.5463
     9.2562   9.5845  10.1437  11.3309  11.7282  13.9135  14.4677  16.8726
    17.2368  17.7745

     occupation numbers 
     1.0000   1.0000   1.0000   1.0000   1.0000   1.0000   1.0000   1.0000
     1.0000   1.0000   1.0000   1.0000   1.0000   1.0000   1.0000   1.0000
     1.0000   1.0000   1.0000   1.0000   1.0000   0.8961   0.0000   0.0000
     0.0000   0.0000

          k =-0.5833-0.5833 0.7500 (  2707 PWs)   bands (ev):

   -75.7204 -71.5411 -41.9277 -41.7082 -41.6871 -37.7209 -37.6854 -37.6592
    -5.0840  -5.0089   6.1315   6.7933   7.1948   7.2391   8.5642   8.6272
     9.4866   9.7886  10.1447  11.5768  11.6264  13.6894  14.4556  16.7367
    17.1754  17.6173

     occupation numbers 
     1.0000   1.0000   1.0000   1.0000   1.0000   1.0000   1.0000   1.0000
     1.0000   1.0000   1.0000   1.0000   1.0000   1.0000   1.0000   1.0000
     1.0000   1.0000   1.0000   1.0000   1.0000   1.0168   0.0000   0.0000
     0.0000   0.0000

          k =-0.3333-0.6667 0.6667 (  2699 PWs)   bands (ev):

   -75.7196 -71.5400 -41.9262 -41.7128 -41.6943 -37.7190 -37.6911 -37.6678
    -4.9398  -4.8477   6.0519   6.7865   7.0899   7.5265   7.6353   8.8467
     9.3405   9.6368  10.0373  11.4608  11.7225  13.9090  14.4857  16.8429
    17.3813  17.5532

     occupation numbers 
     1.0000   1.0000   1.0000   1.0000   1.0000   1.0000   1.0000   1.0000
     1.0000   1.0000   1.0000   1.0000   1.0000   1.0000   1.0000   1.0000
     1.0000   1.0000   1.0000   1.0000   1.0000   0.9145   0.0000   0.0000
     0.0000   0.0000

          k =-0.0833-0.7500 0.5833 (  2700 PWs)   bands (ev):

   -75.7191 -71.5393 -41.9256 -41.7067 -41.7064 -37.7184 -37.6831 -37.6830
    -4.8198  -4.8197   6.5475   6.7399   6.9280   7.3844   7.5707   8.3068
     8.9415   9.9332  10.0984  11.3089  11.6198  14.2207  14.3266  16.8481
    17.4434  17.5551

     occupation numbers 
     1.0000   1.0000   1.0000   1.0000   1.0000   1.0000   1.0000   1.0000
     1.0000   1.0000   1.0000   1.0000   1.0000   1.0000   1.0000   1.0000
     1.0000   1.0000   1.0000   1.0000   1.0000   0.0031   0.0000   0.0000
     0.0000   0.0000

          k =-0.4167-0.4167 0.5833 (  2704 PWs)   bands (ev):

   -75.7201 -71.5398 -41.9262 -41.7174 -41.6894 -37.7190 -37.6973 -37.6621
    -4.9537  -4.8286   5.6816   6.8817   7.1183   7.4086   8.1413   9.0887
     9.1852   9.6250   9.8774  11.6394  11.7119  13.6573  14.6424  16.9275
    17.6126  17.6564

     occupation numbers 
     1.0000   1.0000   1.0000   1.0000   1.0000   1.0000   1.0000   1.0000
     1.0000   1.0000   1.0000   1.0000   1.0000   1.0000   1.0000   1.0000
     1.0000   1.0000   1.0000   1.0000   1.0000   1.0078   0.0000   0.0000
     0.0000   0.0000

          k = 0.1667 0.1667 0.1667 (  2710 PWs)   bands (ev):

   -75.7228 -71.5435 -41.9312 -41.6802 -41.6802 -37.7262 -37.6508 -37.6508
    -5.7650  -5.1801   6.1591   7.0545   7.0545   8.5720   8.6743   8.6743
     9.8569  10.2276  10.2276  12.1031  12.1031  13.7012  13.7012  16.0740
    16.4235  17.4178

     occupation numbers 
     1.0000   1.0000   1.0000   1.0000   1.0000   1.0000   1.0000   1.0000
     1.0000   1.0000   1.0000   1.0000   1.0000   1.0000   1.0000   1.0000
     1.0000   1.0000   1.0000   1.0000   1.0000   1.0216   1.0216   0.0000
     0.0000   0.0000

          k =-1.0833 0.5833 0.5833 (  2698 PWs)   bands (ev):

   -75.7218 -71.5427 -41.9300 -41.6895 -41.6824 -37.7244 -37.6621 -37.6535
    -5.5110  -5.1658   6.3426   6.8819   7.1516   8.0179   8.5122   8.8145
     9.3691  10.4534  10.7201  11.0819  11.6751  13.7664  13.9913  16.4082
    16.5052  17.5458

     occupation numbers 
     1.0000   1.0000   1.0000   1.0000   1.0000   1.0000   1.0000   1.0000
     1.0000   1.0000   1.0000   1.0000   1.0000   1.0000   1.0000   1.0000
     1.0000   1.0000   1.0000   1.0000   1.0000   1.0613   0.4932   0.0000
     0.0000   0.0000

          k =-0.8333 0.5000 0.5000 (  2702 PWs)   bands (ev):

   -75.7204 -71.5410 -41.9275 -41.7081 -41.6871 -37.7210 -37.6854 -37.6592
    -5.1516  -4.9379   6.0764   6.7148   7.1799   7.3850   8.6461   8.6493
     9.2380  10.1955  10.2931  11.1153  11.5042  13.7352  14.4316  16.7501
    16.8909  17.6623

     occupation numbers 
     1.0000   1.0000   1.0000   1.0000   1.0000   1.0000   1.0000   1.0000
     1.0000   1.0000   1.0000   1.0000   1.0000   1.0000   1.0000   1.0000
     1.0000   1.0000   1.0000   1.0000   1.0000   1.0402   0.0000   0.0000
     0.0000   0.0000

          k =-0.6667-0.6667 1.0000 (  2707 PWs)   bands (ev):

   -75.7219 -71.5427 -41.9301 -41.6895 -41.6825 -37.7246 -37.6621 -37.6536
    -5.4137  -5.2692   6.5270   6.7594   7.1826   8.0052   8.4994   8.8956
     9.1468  10.2635  10.6384  11.2655  11.8899  13.7210  14.0114  16.4676
    16.6568  17.4498

     occupation numbers 
     1.0000   1.0000   1.0000   1.0000   1.0000   1.0000   1.0000   1.0000
     1.0000   1.0000   1.0000   1.0000   1.0000   1.0000   1.0000   1.0000
     1.0000   1.0000   1.0000   1.0000   1.0000   1.0316   0.3886   0.0000
     0.0000   0.0000

          k =-0.4167-0.7500 0.9167 (  2706 PWs)   bands (ev):

   -75.7206 -71.5415 -41.9283 -41.7018 -41.6877 -37.7219 -37.6775 -37.6598
    -5.1599  -5.0848   6.2684   6.9833   7.1808   7.5549   7.7525   9.0541
     9.6439   9.8716  10.3822  10.9937  11.7353  13.9137  14.1849  16.6833
    16.8220  17.3990

     occupation numbers 
     1.0000   1.0000   1.0000   1.0000   1.0000   1.0000   1.0000   1.0000
     1.0000   1.0000   1.0000   1.0000   1.0000   1.0000   1.0000   1.0000
     1.0000   1.0000   1.0000   1.0000   1.0000   0.8951   0.0096   0.0000
     0.0000   0.0000

          k =-0.2500-0.2500-0.2500 (  2702 PWs)   bands (ev):

   -75.7228 -71.5434 -41.9313 -41.6800 -41.6800 -37.7264 -37.6506 -37.6506
    -5.4975  -5.4692   6.5086   7.0821   7.0821   8.2480   8.6816   8.6816
     9.6509  10.0907  10.0907  12.2416  12.2416  13.6860  13.6860  16.1671
    17.1702  17.3729

     occupation numbers 
     1.0000   1.0000   1.0000   1.0000   1.0000   1.0000   1.0000   1.0000
     1.0000   1.0000   1.0000   1.0000   1.0000   1.0000   1.0000   1.0000
     1.0000   1.0000   1.0000   1.0000   1.0000   1.0156   1.0156   0.0000
     0.0000   0.0000

     the Fermi energy is    14.0090 ev

!    total energy              =    -741.52736883 Ry
     total all-electron energy =     -5391.814215 Ry
     estimated scf accuracy    <          9.0E-09 Ry
     smearing contrib. (-TS)   =      -0.00035028 Ry
     internal energy E=F+TS    =    -741.52701855 Ry

     The total energy is F=E-TS. E is the sum of the following terms:
     one-electron contribution =    -267.26897560 Ry
     hartree contribution      =     159.39158427 Ry
     xc contribution           =     -70.70198565 Ry
     ewald contribution        =    -378.48617103 Ry
     Hubbard energy            =       0.25595817 Ry
     one-center paw contrib.   =    -184.71742869 Ry
      -> PAW hartree energy AE =     183.54536650 Ry
      -> PAW hartree energy PS =    -182.24316731 Ry
      -> PAW xc energy AE      =    -110.40248405 Ry
      -> PAW xc energy PS      =      26.32964391 Ry
      -> total E_H with PAW    =     160.69378347 Ry
      -> total E_XC with PAW   =    -154.77482579 Ry

     total magnetization       =    -0.00 Bohr mag/cell
     absolute magnetization    =     7.50 Bohr mag/cell

     convergence has been achieved in  33 iterations

     negative rho (up, down):  3.007E-04 3.006E-04
     force_hub    :      0.75s CPU      0.78s WALL (       1 calls)
     dndtau       :      0.62s CPU      0.65s WALL (     192 calls)
     dprojdtau    :      0.17s CPU      0.18s WALL (     384 calls)
     calc_doverla :      0.28s CPU      0.29s WALL (     192 calls)
     matel_dSdtau :      0.38s CPU      0.39s WALL (     384 calls)

     Forces acting on atoms (cartesian axes, Ry/au):

     atom    1 type  1   force =     0.00000000   -0.00000000    0.00000000
     atom    2 type  2   force =    -0.00000000   -0.00000000    0.00000000
     atom    3 type  3   force =    -0.00000406   -0.00000406   -0.00000406
     atom    4 type  3   force =     0.00000406    0.00000406    0.00000406
     The non-local contrib.  to forces
     atom    1 type  1   force =     0.00000000    0.00000000    0.00000000
     atom    2 type  2   force =     0.00000000    0.00000000   -0.00000000
     atom    3 type  3   force =     0.00000375    0.00000375    0.00000375
     atom    4 type  3   force =    -0.00000375   -0.00000375   -0.00000375
     The ionic contribution  to forces
     atom    1 type  1   force =    -0.00000000   -0.00000000   -0.00000000
     atom    2 type  2   force =     0.00000000    0.00000000    0.00000000
     atom    3 type  3   force =    -0.00000000   -0.00000000   -0.00000000
     atom    4 type  3   force =     0.00000000    0.00000000    0.00000000
     The local contribution  to forces
     atom    1 type  1   force =    -0.00000000   -0.00000000   -0.00000000
     atom    2 type  2   force =     0.00000000    0.00000000    0.00000000
     atom    3 type  3   force =     0.00008079    0.00008079    0.00008079
     atom    4 type  3   force =    -0.00008079   -0.00008079   -0.00008079
     The core correction contribution to forces
     atom    1 type  1   force =    -0.00000000    0.00000000   -0.00000000
     atom    2 type  2   force =    -0.00000000   -0.00000000   -0.00000000
     atom    3 type  3   force =    -0.00000009   -0.00000009   -0.00000009
     atom    4 type  3   force =     0.00000009    0.00000009    0.00000009
     The Hubbard contrib.    to forces
     atom    1 type  1   force =     0.00000000   -0.00000000    0.00000000
     atom    2 type  2   force =     0.00000000   -0.00000000    0.00000000
     atom    3 type  3   force =    -0.00000003   -0.00000003   -0.00000003
     atom    4 type  3   force =     0.00000003    0.00000003    0.00000003
     The SCF correction term to forces
     atom    1 type  1   force =     0.00000000    0.00000000    0.00000000
     atom    2 type  2   force =    -0.00000000    0.00000000    0.00000000
     atom    3 type  3   force =    -0.00008849   -0.00008849   -0.00008849
     atom    4 type  3   force =     0.00008849    0.00008849    0.00008849

     Total force =     0.000010     Total SCF correction =     0.000217
     SCF correction compared to forces is large: reduce conv_thr to get better values


     Computing stress (Cartesian axis) and pressure


     negative rho (up, down):  3.007E-04 3.006E-04
     stres_hub    :      2.17s CPU      2.20s WALL (       1 calls)
     dprojdepsilo :      1.82s CPU      1.85s WALL (     144 calls)
     dprojdeps1   :      0.49s CPU      0.49s WALL (     144 calls)
     dprojdeps2   :      0.89s CPU      0.91s WALL (     144 calls)
     dprojdeps3   :      0.44s CPU      0.45s WALL (     144 calls)
          total   stress  (Ry/bohr**3)                   (kbar)     P=       25.18
   0.00017115   0.00013152   0.00013152           25.18       19.35       19.35
   0.00013152   0.00017115   0.00013152           19.35       25.18       19.35
   0.00013152   0.00013152   0.00017115           19.35       19.35       25.18

     kinetic stress (kbar)  67289.53   -113.19   -113.19
                             -113.19  67289.53   -113.19
                             -113.19   -113.19  67289.53

     local   stress (kbar)  -1695.26    197.33    197.33
                              197.33  -1695.26    197.33
                              197.33    197.33  -1695.26

     nonloc. stress (kbar) -13507.14      9.09      9.09
                                9.09 -13507.14      9.09
                                9.09      9.09 -13507.14

     hartree stress (kbar)  28558.93    -71.68    -71.68
                              -71.68  28558.93    -71.68
                              -71.68    -71.68  28558.93

     exc-cor stress (kbar) -10107.15     -0.88     -0.88
                               -0.88 -10107.15     -0.88
                               -0.88     -0.88 -10107.15

     corecor stress (kbar)  -1986.77      0.95      0.95
                                0.95  -1986.77      0.95
                                0.95      0.95  -1986.77

     ewald   stress (kbar) -67815.12     -0.00     -0.00
                               -0.00 -67815.12      0.00
                               -0.00      0.00 -67815.12

     hubbard stress (kbar)   -711.84     -2.27     -2.27
                               -2.27   -711.84     -2.27
                               -2.27     -2.27   -711.84

     DFT-D   stress (kbar)      0.00      0.00      0.00
                                0.00      0.00      0.00
                                0.00      0.00      0.00

     XDM     stress (kbar)      0.00      0.00      0.00
                                0.00      0.00      0.00
                                0.00      0.00      0.00

     dft-nl  stress (kbar)      0.00      0.00      0.00
                                0.00      0.00      0.00
                                0.00      0.00      0.00

     TS-vdW  stress (kbar)      0.00      0.00      0.00
                                0.00      0.00      0.00
                                0.00      0.00      0.00

     MDB     stress (kbar)      0.00      0.00      0.00
                                0.00      0.00      0.00
                                0.00      0.00      0.00

     3D-RISM stress (kbar)      0.00      0.00      0.00
                                0.00      0.00      0.00
                                0.00      0.00      0.00


     Writing all to output data dir ./tmp/FeO_U.save/ :
     XML data file, charge density, pseudopotentials, collected wavefunctions

     init_run     :      2.58s CPU      2.95s WALL (       1 calls)
     electrons    :    135.59s CPU    143.16s WALL (       1 calls)
     forces       :      1.57s CPU      1.69s WALL (       1 calls)
     stress       :      4.02s CPU      4.25s WALL (       1 calls)

     Called by init_run:
     wfcinit      :      0.74s CPU      0.79s WALL (       1 calls)
     wfcinit:atom :      0.01s CPU      0.01s WALL (      16 calls)
     wfcinit:wfcr :      0.65s CPU      0.69s WALL (      16 calls)
     potinit      :      0.89s CPU      1.13s WALL (       1 calls)
     hinit0       :      0.76s CPU      0.80s WALL (       1 calls)

     Called by electrons:
     c_bands      :     79.94s CPU     82.94s WALL (      33 calls)
     sum_band     :     23.77s CPU     24.60s WALL (      33 calls)
     v_of_rho     :     15.81s CPU     19.15s WALL (      34 calls)
     v_h          :      0.34s CPU      0.36s WALL (      34 calls)
     v_xc         :     16.34s CPU     19.87s WALL (      36 calls)
     newd         :      3.74s CPU      3.93s WALL (      34 calls)
     PAW_pot      :      9.16s CPU      9.42s WALL (      34 calls)
     mix_rho      :      2.05s CPU      2.16s WALL (      33 calls)

     Called by c_bands:
     init_us_2    :      0.87s CPU      0.89s WALL (    1152 calls)
     cegterg      :     71.00s CPU     73.95s WALL (     528 calls)

     Called by sum_band:
     sum_band:wei :      0.07s CPU      0.07s WALL (      33 calls)
     sum_band:loo :     14.75s CPU     15.40s WALL (      33 calls)
     sum_band:buf :      0.05s CPU      0.05s WALL (     528 calls)
     sum_band:ini :      0.37s CPU      0.38s WALL (     528 calls)
     sum_band:cal :      0.48s CPU      0.50s WALL (     528 calls)
     sum_band:bec :      0.01s CPU      0.01s WALL (     528 calls)
     addusdens    :      5.92s CPU      5.96s WALL (      33 calls)
                                        0.00s GPU  (      33 calls)
     addusd:skk   :      0.01s CPU      0.01s WALL (      99 calls)
                                        0.00s GPU  (      99 calls)

     Called by *egterg:
     cdiaghg      :      1.38s CPU      1.42s WALL (    2166 calls)
     cegterg:over :      1.46s CPU      1.52s WALL (    1638 calls)
     cegterg:upda :      0.61s CPU      0.63s WALL (    1638 calls)
     cegterg:last :      1.09s CPU      1.11s WALL (    1055 calls)
     h_psi        :     65.07s CPU     67.89s WALL (    2182 calls)
     s_psi        :      0.79s CPU      0.82s WALL (    2262 calls)
     g_psi        :      0.16s CPU      0.16s WALL (    1638 calls)

     Called by h_psi:
     h_psi:calbec :      1.26s CPU      1.32s WALL (    2182 calls)
     vloc_psi     :     62.21s CPU     64.91s WALL (    2182 calls)
                                        0.00s GPU  (    2182 calls)
     add_vuspsi   :      0.76s CPU      0.79s WALL (    2182 calls)
     vhpsi        :      0.70s CPU      0.72s WALL (    2182 calls)

     General routines
     calbec       :      3.88s CPU      4.03s WALL (   12092 calls)
     fft          :      9.00s CPU      9.67s WALL (     888 calls)
     ffts         :      1.09s CPU      1.16s WALL (     916 calls)
     fftw         :     67.99s CPU     71.00s WALL (   81824 calls)
     interpolate  :      1.05s CPU      1.08s WALL (      68 calls)

     Parallel routines

     Hubbard U routines
     new_ns       :      0.24s CPU      0.24s WALL (      33 calls)
     vhpsi        :      0.70s CPU      0.72s WALL (    2182 calls)
     force_hub    :      0.75s CPU      0.78s WALL (       1 calls)
     stres_hub    :      2.17s CPU      2.20s WALL (       1 calls)

     PAW routines
     PAW_pot      :      9.16s CPU      9.42s WALL (      34 calls)
     PAW_symme    :      0.03s CPU      0.03s WALL (      67 calls)

     PWSCF        :   2m24.04s CPU   2m32.41s WALL


   This run was terminated on:  15:44:32  25Jul2026            

=------------------------------------------------------------------------------=
   JOB DONE.
=------------------------------------------------------------------------------=
