LAMMPS (22 Jul 2025 - Update 4)
OMP_NUM_THREADS environment is not set. Defaulting to 1 thread.
  using 1 OpenMP thread(s) per MPI task
# Cu(100) slab demonstration — slab+vacuum geometry (illustrates cu-01 §1.2)
units           metal
atom_style      atomic
boundary        p p f

lattice         fcc 3.615
Lattice spacing in x,y,z = 3.615 3.615 3.615
region          sim   block 0 8 0 8 0 12 units lattice
create_box      1 sim
Created orthogonal box = (0 0 0) to (28.92 28.92 43.38)
  1 by 1 by 1 MPI processor grid
region          slab  block 0 8 0 8 0 6  units lattice
create_atoms    1 region slab
Created 1664 atoms
  using lattice units in orthogonal box = (0 0 0) to (28.92 28.92 43.38)
  create_atoms CPU = 0.001 seconds
mass            1 63.546

pair_style      eam/alloy
pair_coeff      * * Cu_mishin1.eam.alloy Cu
Reading eam/alloy potential file Cu_mishin1.eam.alloy with DATE: 2007-10-12

# pin the bottom layer; thermostat the rest
region          bot   block INF INF INF INF 0 0.6 units lattice
group           bottom region bot
256 atoms in group bottom
group           mobile subtract all bottom
1408 atoms in group mobile

velocity        mobile create 300.0 4928459 mom yes rot yes dist gaussian
fix             freeze bottom setforce 0.0 0.0 0.0
fix             integ  mobile nvt temp 300.0 300.0 0.1

timestep        0.002
thermo          500
thermo_style    custom step temp pe etotal press
run             10000
Neighbor list info ...
  update: every = 1 steps, delay = 0 steps, check = yes
  max neighbors/atom: 2000, page size: 100000
  master list distance cutoff = 7.50679
  ghost atom cutoff = 7.50679
  binsize = 3.753395, bins = 8 8 12
  1 neighbor lists, perpetual/occasional/extra = 1 0 0
  (1) pair eam/alloy, perpetual
      attributes: half, newton on
      pair build: half/bin/atomonly/newton
      stencil: half/bin/3d
      bin: standard
Per MPI rank memory allocation (min/avg/max) = 3.818 | 3.818 | 3.818 Mbytes
   Step          Temp          PotEng         TotEng         Press     
         0   253.8184      -5749.9163     -5695.3556     -5778.9907    
       500   253.05769     -5694.4003     -5640.0031     -9546.1221    
      1000   267.19235     -5695.7562     -5638.3206      1729.171     
      1500   253.1248      -5692.6357     -5638.2241     -9774.9528    
      2000   253.33269     -5696.075      -5641.6187      1748.8073    
      2500   254.80095     -5692.1195     -5637.3475     -9588.4878    
      3000   255.16845     -5695.4307     -5640.5798      856.42957    
      3500   257.22599     -5692.3097     -5637.0165     -8713.9778    
      4000   252.64914     -5698.4764     -5644.167       271.47697    
      4500   245.8937      -5692.6724     -5639.8152     -8158.7969    
      5000   261.75454     -5693.2674     -5637.0007      280.50991    
      5500   243.31047     -5694.178      -5641.8761     -7622.1953    
      6000   247.74697     -5694.0938     -5640.8382     -1021.7795    
      6500   257.6414      -5693.7968     -5638.4143     -6668.561     
      7000   255.32172     -5696.0609     -5641.1771     -2007.9292    
      7500   256.17        -5693.7373     -5638.6711     -5976.4305    
      8000   252.91874     -5696.277      -5641.9097     -2448.0888    
      8500   254.32825     -5693.4726     -5638.8022     -4942.6118    
      9000   247.86607     -5698.9094     -5645.6282     -3762.7927    
      9500   251.97989     -5693.5362     -5639.3707     -4732.0183    
     10000   247.4071      -5695.3154     -5642.1329     -4114.9433    
Loop time of 11.5749 on 1 procs for 10000 steps with 1664 atoms

Performance: 149.289 ns/day, 0.161 hours/ns, 863.941 timesteps/s, 1.438 Matom-step/s
100.0% CPU use with 1 MPI tasks x 1 OpenMP threads

MPI task timing breakdown:
Section |  min time  |  avg time  |  max time  |%varavg| %total
---------------------------------------------------------------
Pair    | 11.291     | 11.291     | 11.291     |   0.0 | 97.55
Neigh   | 0          | 0          | 0          |   0.0 |  0.00
Comm    | 0.070311   | 0.070311   | 0.070311   |   0.0 |  0.61
Output  | 0.00048774 | 0.00048774 | 0.00048774 |   0.0 |  0.00
Modify  | 0.17634    | 0.17634    | 0.17634    |   0.0 |  1.52
Other   |            | 0.03689    |            |       |  0.32

Nlocal:           1664 ave        1664 max        1664 min
Histogram: 1 0 0 0 0 0 0 0 0 0
Nghost:           2399 ave        2399 max        2399 min
Histogram: 1 0 0 0 0 0 0 0 0 0
Neighs:         102912 ave      102912 max      102912 min
Histogram: 1 0 0 0 0 0 0 0 0 0

Total # of neighbors = 102912
Ave neighs/atom = 61.846154
Neighbor list builds = 0
Dangerous builds = 0

# z number-density profile (time-averaged over production window)
reset_timestep  0
compute         cc all chunk/atom bin/1d z lower 0.25 units box
fix             zd all ave/chunk 100 50 5000 cc density/number file zdens.dat
run             5000
Per MPI rank memory allocation (min/avg/max) = 4.069 | 4.069 | 4.069 Mbytes
   Step          Temp          PotEng         TotEng         Press     
         0   247.4071      -5695.3154     -5642.1329     -4114.9433    
       500   254.87546     -5696.5557     -5641.7678     -4072.5059    
      1000   242.9701      -5696.8721     -5644.6433     -4897.1177    
      1500   253.93811     -5695.7618     -5641.1753     -3022.7291    
      2000   247.59185     -5692.5813     -5639.359      -5427.6406    
      2500   261.73182     -5695.1734     -5638.9116     -1853.5607    
      3000   257.82743     -5694.7967     -5639.3742     -6987.743     
      3500   249.0604      -5695.8613     -5642.3234     -1346.193     
      4000   263.31671     -5694.5308     -5637.9283     -6930.2649    
      4500   260.82394     -5695.238      -5639.1714     -1016.571     
      5000   261.47444     -5693.3347     -5637.1283     -7437.4626    
Loop time of 7.39797 on 1 procs for 5000 steps with 1664 atoms

Performance: 116.789 ns/day, 0.205 hours/ns, 675.861 timesteps/s, 1.125 Matom-step/s
100.0% CPU use with 1 MPI tasks x 1 OpenMP threads

MPI task timing breakdown:
Section |  min time  |  avg time  |  max time  |%varavg| %total
---------------------------------------------------------------
Pair    | 7.251      | 7.251      | 7.251      |   0.0 | 98.01
Neigh   | 0          | 0          | 0          |   0.0 |  0.00
Comm    | 0.034605   | 0.034605   | 0.034605   |   0.0 |  0.47
Output  | 0.0002129  | 0.0002129  | 0.0002129  |   0.0 |  0.00
Modify  | 0.09362    | 0.09362    | 0.09362    |   0.0 |  1.27
Other   |            | 0.01851    |            |       |  0.25

Nlocal:           1664 ave        1664 max        1664 min
Histogram: 1 0 0 0 0 0 0 0 0 0
Nghost:           2399 ave        2399 max        2399 min
Histogram: 1 0 0 0 0 0 0 0 0 0
Neighs:         104015 ave      104015 max      104015 min
Histogram: 1 0 0 0 0 0 0 0 0 0

Total # of neighbors = 104015
Ave neighs/atom = 62.509014
Neighbor list builds = 0
Dangerous builds = 0

write_dump      all custom slab_final.dump id type x y z modify sort id
print           "SLAB_NATOMS $(count(all))"
SLAB_NATOMS 1664
Total wall time: 0:00:19
